4
pbc=[T, T, T] Lattice="3.27584869 0.00000000 -0.00000000 -1.63792434 2.83696818 0.00000000 -0.00000000 0.00000000 5.28576071" Properties=species:S:1:pos:R:3:velocities:R:3:Z:I:1
Zn        -0.00000000       1.89131212      -0.09034755         0.00000000       0.00000000       0.00000000         30
Zn         1.63792434       0.94565606       2.55253280         0.00000000       0.00000000       0.00000000         30
O        -0.00000000       1.89131212       1.91393623         0.00000000       0.00000000       0.00000000          8
O         1.63792434       0.94565606       4.55681658         0.00000000       0.00000000       0.00000000          8
