<UPF version="2.0.1">
  <PP_INFO>

 This pseudopotential file has been produced using the code
 METAPSP-1.0.0, a code for metagga functails adapted in 2024 from
 ONCVPSP  (Optimized Norm-Conservinng Vanderbilt PSeudopotential)
 scalar-relativistic version 4.0.1 06/04/2019 by D. R. Hamann
 The code is available through a link at URL www.mat-simresearch.com.
 Documentation with the package provides a full discription of the
 input data below.


 While it is not required under the terms of the GNU GPL, it is
 suggested that you cite D. R. Hamann, Phys. Rev. B 88, 085117 (2013)
 in any publication using these pseudopotentials.

    <PP_INPUTFILE>
# ATOM AND REFERENCE CONFIGURATION
# atsym  z   nc   nv     iexc    psfile
  Ba 56.00    9    3       5      upf
#
#   n    l    f        energy (Ha)
    1    0    2.00
    2    0    2.00
    2    1    6.00
    3    0    2.00
    3    1    6.00
    3    2   10.00
    4    0    2.00
    4    1    6.00
    4    2   10.00
    5    0    2.00
    5    1    6.00
    6    0    2.00
#
# PSEUDOPOTENTIAL AND OPTIMIZATION
# lmax
    3
#
#   l,   rc,      ep,       ncon, nbas, qcut
    0   1.95000   0.00000    3    8   5.20000
    1   1.80000   0.00000    4    8   6.60000
    2   1.90000   0.00000    4    9   6.80000
    3   2.10000   0.05000    4    8   8.00000
#
# LOCAL POTENTIAL
# lloc, lpopt,  rc(5),   dvloc0
    4    5   1.80000      0.00000
#
# VANDERBILT-KLEINMAN-BYLANDER PROJECTORs
# l, nproj, debl
    0    2   1.00000
    1    2   2.50000
    2    2   3.00000
    3    2   3.00000
#
# MODEL CORE CHARGE
# icmod, fcfact, rcfact
    5   3.00000   0.50000
#
# LOG DERIVATIVE ANALYSIS
# epsh1, epsh2, depsh
  -12.00   12.00    0.02
#
# OUTPUT GRID
# rlmax, drl
    6.00    0.01
#
# TEST CONFIGURATIONS
# ncnf
    0
# nvcnf
#   n    l    f
    </PP_INPUTFILE>
  </PP_INFO>
  <!--                               -->
  <!-- END OF HUMAN READABLE SECTION -->
  <!--                               -->
    <PP_HEADER
       generated="Generated using METAPSP code by D. R. Hamann"
       author="anonymous"
       date="260620"
       comment=""
       element="Ba"
       pseudo_type="NC"
       relativistic="scalar"
       is_ultrasoft="F"
       is_paw="F"
       is_coulomb="F"
       has_so="F"
       has_wfc="F"
       has_gipaw="F"
       core_correction="T"
       with_metagga_info="T"
       functional="R2SCAN01"
       z_valence="   10.00"
       total_psenergy="  -2.55258456719E+01"
       rho_cutoff="   1.93900000000E+01"
       l_max="3"
       l_local="-1"
       mesh_size="  1940"
       number_of_wfc="3"
       number_of_proj="8"/>
 <PP_MESH>
   <PP_R type="real"  size="1940" columns="8">
    0.0000    0.0100    0.0200    0.0300    0.0400    0.0500    0.0600    0.0700
    0.0800    0.0900    0.1000    0.1100    0.1200    0.1300    0.1400    0.1500
    0.1600    0.1700    0.1800    0.1900    0.2000    0.2100    0.2200    0.2300
    0.2400    0.2500    0.2600    0.2700    0.2800    0.2900    0.3000    0.3100
    0.3200    0.3300    0.3400    0.3500    0.3600    0.3700    0.3800    0.3900
    0.4000    0.4100    0.4200    0.4300    0.4400    0.4500    0.4600    0.4700
    0.4800    0.4900    0.5000    0.5100    0.5200    0.5300    0.5400    0.5500
    0.5600    0.5700    0.5800    0.5900    0.6000    0.6100    0.6200    0.6300
    0.6400    0.6500    0.6600    0.6700    0.6800    0.6900    0.7000    0.7100
    0.7200    0.7300    0.7400    0.7500    0.7600    0.7700    0.7800    0.7900
    0.8000    0.8100    0.8200    0.8300    0.8400    0.8500    0.8600    0.8700
    0.8800    0.8900    0.9000    0.9100    0.9200    0.9300    0.9400    0.9500
    0.9600    0.9700    0.9800    0.9900    1.0000    1.0100    1.0200    1.0300
    1.0400    1.0500    1.0600    1.0700    1.0800    1.0900    1.1000    1.1100
    1.1200    1.1300    1.1400    1.1500    1.1600    1.1700    1.1800    1.1900
    1.2000    1.2100    1.2200    1.2300    1.2400    1.2500    1.2600    1.2700
    1.2800    1.2900    1.3000    1.3100    1.3200    1.3300    1.3400    1.3500
    1.3600    1.3700    1.3800    1.3900    1.4000    1.4100    1.4200    1.4300
    1.4400    1.4500    1.4600    1.4700    1.4800    1.4900    1.5000    1.5100
    1.5200    1.5300    1.5400    1.5500    1.5600    1.5700    1.5800    1.5900
    1.6000    1.6100    1.6200    1.6300    1.6400    1.6500    1.6600    1.6700
    1.6800    1.6900    1.7000    1.7100    1.7200    1.7300    1.7400    1.7500
    1.7600    1.7700    1.7800    1.7900    1.8000    1.8100    1.8200    1.8300
    1.8400    1.8500    1.8600    1.8700    1.8800    1.8900    1.9000    1.9100
    1.9200    1.9300    1.9400    1.9500    1.9600    1.9700    1.9800    1.9900
    2.0000    2.0100    2.0200    2.0300    2.0400    2.0500    2.0600    2.0700
    2.0800    2.0900    2.1000    2.1100    2.1200    2.1300    2.1400    2.1500
    2.1600    2.1700    2.1800    2.1900    2.2000    2.2100    2.2200    2.2300
    2.2400    2.2500    2.2600    2.2700    2.2800    2.2900    2.3000    2.3100
    2.3200    2.3300    2.3400    2.3500    2.3600    2.3700    2.3800    2.3900
    2.4000    2.4100    2.4200    2.4300    2.4400    2.4500    2.4600    2.4700
    2.4800    2.4900    2.5000    2.5100    2.5200    2.5300    2.5400    2.5500
    2.5600    2.5700    2.5800    2.5900    2.6000    2.6100    2.6200    2.6300
    2.6400    2.6500    2.6600    2.6700    2.6800    2.6900    2.7000    2.7100
    2.7200    2.7300    2.7400    2.7500    2.7600    2.7700    2.7800    2.7900
    2.8000    2.8100    2.8200    2.8300    2.8400    2.8500    2.8600    2.8700
    2.8800    2.8900    2.9000    2.9100    2.9200    2.9300    2.9400    2.9500
    2.9600    2.9700    2.9800    2.9900    3.0000    3.0100    3.0200    3.0300
    3.0400    3.0500    3.0600    3.0700    3.0800    3.0900    3.1000    3.1100
    3.1200    3.1300    3.1400    3.1500    3.1600    3.1700    3.1800    3.1900
    3.2000    3.2100    3.2200    3.2300    3.2400    3.2500    3.2600    3.2700
    3.2800    3.2900    3.3000    3.3100    3.3200    3.3300    3.3400    3.3500
    3.3600    3.3700    3.3800    3.3900    3.4000    3.4100    3.4200    3.4300
    3.4400    3.4500    3.4600    3.4700    3.4800    3.4900    3.5000    3.5100
    3.5200    3.5300    3.5400    3.5500    3.5600    3.5700    3.5800    3.5900
    3.6000    3.6100    3.6200    3.6300    3.6400    3.6500    3.6600    3.6700
    3.6800    3.6900    3.7000    3.7100    3.7200    3.7300    3.7400    3.7500
    3.7600    3.7700    3.7800    3.7900    3.8000    3.8100    3.8200    3.8300
    3.8400    3.8500    3.8600    3.8700    3.8800    3.8900    3.9000    3.9100
    3.9200    3.9300    3.9400    3.9500    3.9600    3.9700    3.9800    3.9900
    4.0000    4.0100    4.0200    4.0300    4.0400    4.0500    4.0600    4.0700
    4.0800    4.0900    4.1000    4.1100    4.1200    4.1300    4.1400    4.1500
    4.1600    4.1700    4.1800    4.1900    4.2000    4.2100    4.2200    4.2300
    4.2400    4.2500    4.2600    4.2700    4.2800    4.2900    4.3000    4.3100
    4.3200    4.3300    4.3400    4.3500    4.3600    4.3700    4.3800    4.3900
    4.4000    4.4100    4.4200    4.4300    4.4400    4.4500    4.4600    4.4700
    4.4800    4.4900    4.5000    4.5100    4.5200    4.5300    4.5400    4.5500
    4.5600    4.5700    4.5800    4.5900    4.6000    4.6100    4.6200    4.6300
    4.6400    4.6500    4.6600    4.6700    4.6800    4.6900    4.7000    4.7100
    4.7200    4.7300    4.7400    4.7500    4.7600    4.7700    4.7800    4.7900
    4.8000    4.8100    4.8200    4.8300    4.8400    4.8500    4.8600    4.8700
    4.8800    4.8900    4.9000    4.9100    4.9200    4.9300    4.9400    4.9500
    4.9600    4.9700    4.9800    4.9900    5.0000    5.0100    5.0200    5.0300
    5.0400    5.0500    5.0600    5.0700    5.0800    5.0900    5.1000    5.1100
    5.1200    5.1300    5.1400    5.1500    5.1600    5.1700    5.1800    5.1900
    5.2000    5.2100    5.2200    5.2300    5.2400    5.2500    5.2600    5.2700
    5.2800    5.2900    5.3000    5.3100    5.3200    5.3300    5.3400    5.3500
    5.3600    5.3700    5.3800    5.3900    5.4000    5.4100    5.4200    5.4300
    5.4400    5.4500    5.4600    5.4700    5.4800    5.4900    5.5000    5.5100
    5.5200    5.5300    5.5400    5.5500    5.5600    5.5700    5.5800    5.5900
    5.6000    5.6100    5.6200    5.6300    5.6400    5.6500    5.6600    5.6700
    5.6800    5.6900    5.7000    5.7100    5.7200    5.7300    5.7400    5.7500
    5.7600    5.7700    5.7800    5.7900    5.8000    5.8100    5.8200    5.8300
    5.8400    5.8500    5.8600    5.8700    5.8800    5.8900    5.9000    5.9100
    5.9200    5.9300    5.9400    5.9500    5.9600    5.9700    5.9800    5.9900
    6.0000    6.0100    6.0200    6.0300    6.0400    6.0500    6.0600    6.0700
    6.0800    6.0900    6.1000    6.1100    6.1200    6.1300    6.1400    6.1500
    6.1600    6.1700    6.1800    6.1900    6.2000    6.2100    6.2200    6.2300
    6.2400    6.2500    6.2600    6.2700    6.2800    6.2900    6.3000    6.3100
    6.3200    6.3300    6.3400    6.3500    6.3600    6.3700    6.3800    6.3900
    6.4000    6.4100    6.4200    6.4300    6.4400    6.4500    6.4600    6.4700
    6.4800    6.4900    6.5000    6.5100    6.5200    6.5300    6.5400    6.5500
    6.5600    6.5700    6.5800    6.5900    6.6000    6.6100    6.6200    6.6300
    6.6400    6.6500    6.6600    6.6700    6.6800    6.6900    6.7000    6.7100
    6.7200    6.7300    6.7400    6.7500    6.7600    6.7700    6.7800    6.7900
    6.8000    6.8100    6.8200    6.8300    6.8400    6.8500    6.8600    6.8700
    6.8800    6.8900    6.9000    6.9100    6.9200    6.9300    6.9400    6.9500
    6.9600    6.9700    6.9800    6.9900    7.0000    7.0100    7.0200    7.0300
    7.0400    7.0500    7.0600    7.0700    7.0800    7.0900    7.1000    7.1100
    7.1200    7.1300    7.1400    7.1500    7.1600    7.1700    7.1800    7.1900
    7.2000    7.2100    7.2200    7.2300    7.2400    7.2500    7.2600    7.2700
    7.2800    7.2900    7.3000    7.3100    7.3200    7.3300    7.3400    7.3500
    7.3600    7.3700    7.3800    7.3900    7.4000    7.4100    7.4200    7.4300
    7.4400    7.4500    7.4600    7.4700    7.4800    7.4900    7.5000    7.5100
    7.5200    7.5300    7.5400    7.5500    7.5600    7.5700    7.5800    7.5900
    7.6000    7.6100    7.6200    7.6300    7.6400    7.6500    7.6600    7.6700
    7.6800    7.6900    7.7000    7.7100    7.7200    7.7300    7.7400    7.7500
    7.7600    7.7700    7.7800    7.7900    7.8000    7.8100    7.8200    7.8300
    7.8400    7.8500    7.8600    7.8700    7.8800    7.8900    7.9000    7.9100
    7.9200    7.9300    7.9400    7.9500    7.9600    7.9700    7.9800    7.9900
    8.0000    8.0100    8.0200    8.0300    8.0400    8.0500    8.0600    8.0700
    8.0800    8.0900    8.1000    8.1100    8.1200    8.1300    8.1400    8.1500
    8.1600    8.1700    8.1800    8.1900    8.2000    8.2100    8.2200    8.2300
    8.2400    8.2500    8.2600    8.2700    8.2800    8.2900    8.3000    8.3100
    8.3200    8.3300    8.3400    8.3500    8.3600    8.3700    8.3800    8.3900
    8.4000    8.4100    8.4200    8.4300    8.4400    8.4500    8.4600    8.4700
    8.4800    8.4900    8.5000    8.5100    8.5200    8.5300    8.5400    8.5500
    8.5600    8.5700    8.5800    8.5900    8.6000    8.6100    8.6200    8.6300
    8.6400    8.6500    8.6600    8.6700    8.6800    8.6900    8.7000    8.7100
    8.7200    8.7300    8.7400    8.7500    8.7600    8.7700    8.7800    8.7900
    8.8000    8.8100    8.8200    8.8300    8.8400    8.8500    8.8600    8.8700
    8.8800    8.8900    8.9000    8.9100    8.9200    8.9300    8.9400    8.9500
    8.9600    8.9700    8.9800    8.9900    9.0000    9.0100    9.0200    9.0300
    9.0400    9.0500    9.0600    9.0700    9.0800    9.0900    9.1000    9.1100
    9.1200    9.1300    9.1400    9.1500    9.1600    9.1700    9.1800    9.1900
    9.2000    9.2100    9.2200    9.2300    9.2400    9.2500    9.2600    9.2700
    9.2800    9.2900    9.3000    9.3100    9.3200    9.3300    9.3400    9.3500
    9.3600    9.3700    9.3800    9.3900    9.4000    9.4100    9.4200    9.4300
    9.4400    9.4500    9.4600    9.4700    9.4800    9.4900    9.5000    9.5100
    9.5200    9.5300    9.5400    9.5500    9.5600    9.5700    9.5800    9.5900
    9.6000    9.6100    9.6200    9.6300    9.6400    9.6500    9.6600    9.6700
    9.6800    9.6900    9.7000    9.7100    9.7200    9.7300    9.7400    9.7500
    9.7600    9.7700    9.7800    9.7900    9.8000    9.8100    9.8200    9.8300
    9.8400    9.8500    9.8600    9.8700    9.8800    9.8900    9.9000    9.9100
    9.9200    9.9300    9.9400    9.9500    9.9600    9.9700    9.9800    9.9900
   10.0000   10.0100   10.0200   10.0300   10.0400   10.0500   10.0600   10.0700
   10.0800   10.0900   10.1000   10.1100   10.1200   10.1300   10.1400   10.1500
   10.1600   10.1700   10.1800   10.1900   10.2000   10.2100   10.2200   10.2300
   10.2400   10.2500   10.2600   10.2700   10.2800   10.2900   10.3000   10.3100
   10.3200   10.3300   10.3400   10.3500   10.3600   10.3700   10.3800   10.3900
   10.4000   10.4100   10.4200   10.4300   10.4400   10.4500   10.4600   10.4700
   10.4800   10.4900   10.5000   10.5100   10.5200   10.5300   10.5400   10.5500
   10.5600   10.5700   10.5800   10.5900   10.6000   10.6100   10.6200   10.6300
   10.6400   10.6500   10.6600   10.6700   10.6800   10.6900   10.7000   10.7100
   10.7200   10.7300   10.7400   10.7500   10.7600   10.7700   10.7800   10.7900
   10.8000   10.8100   10.8200   10.8300   10.8400   10.8500   10.8600   10.8700
   10.8800   10.8900   10.9000   10.9100   10.9200   10.9300   10.9400   10.9500
   10.9600   10.9700   10.9800   10.9900   11.0000   11.0100   11.0200   11.0300
   11.0400   11.0500   11.0600   11.0700   11.0800   11.0900   11.1000   11.1100
   11.1200   11.1300   11.1400   11.1500   11.1600   11.1700   11.1800   11.1900
   11.2000   11.2100   11.2200   11.2300   11.2400   11.2500   11.2600   11.2700
   11.2800   11.2900   11.3000   11.3100   11.3200   11.3300   11.3400   11.3500
   11.3600   11.3700   11.3800   11.3900   11.4000   11.4100   11.4200   11.4300
   11.4400   11.4500   11.4600   11.4700   11.4800   11.4900   11.5000   11.5100
   11.5200   11.5300   11.5400   11.5500   11.5600   11.5700   11.5800   11.5900
   11.6000   11.6100   11.6200   11.6300   11.6400   11.6500   11.6600   11.6700
   11.6800   11.6900   11.7000   11.7100   11.7200   11.7300   11.7400   11.7500
   11.7600   11.7700   11.7800   11.7900   11.8000   11.8100   11.8200   11.8300
   11.8400   11.8500   11.8600   11.8700   11.8800   11.8900   11.9000   11.9100
   11.9200   11.9300   11.9400   11.9500   11.9600   11.9700   11.9800   11.9900
   12.0000   12.0100   12.0200   12.0300   12.0400   12.0500   12.0600   12.0700
   12.0800   12.0900   12.1000   12.1100   12.1200   12.1300   12.1400   12.1500
   12.1600   12.1700   12.1800   12.1900   12.2000   12.2100   12.2200   12.2300
   12.2400   12.2500   12.2600   12.2700   12.2800   12.2900   12.3000   12.3100
   12.3200   12.3300   12.3400   12.3500   12.3600   12.3700   12.3800   12.3900
   12.4000   12.4100   12.4200   12.4300   12.4400   12.4500   12.4600   12.4700
   12.4800   12.4900   12.5000   12.5100   12.5200   12.5300   12.5400   12.5500
   12.5600   12.5700   12.5800   12.5900   12.6000   12.6100   12.6200   12.6300
   12.6400   12.6500   12.6600   12.6700   12.6800   12.6900   12.7000   12.7100
   12.7200   12.7300   12.7400   12.7500   12.7600   12.7700   12.7800   12.7900
   12.8000   12.8100   12.8200   12.8300   12.8400   12.8500   12.8600   12.8700
   12.8800   12.8900   12.9000   12.9100   12.9200   12.9300   12.9400   12.9500
   12.9600   12.9700   12.9800   12.9900   13.0000   13.0100   13.0200   13.0300
   13.0400   13.0500   13.0600   13.0700   13.0800   13.0900   13.1000   13.1100
   13.1200   13.1300   13.1400   13.1500   13.1600   13.1700   13.1800   13.1900
   13.2000   13.2100   13.2200   13.2300   13.2400   13.2500   13.2600   13.2700
   13.2800   13.2900   13.3000   13.3100   13.3200   13.3300   13.3400   13.3500
   13.3600   13.3700   13.3800   13.3900   13.4000   13.4100   13.4200   13.4300
   13.4400   13.4500   13.4600   13.4700   13.4800   13.4900   13.5000   13.5100
   13.5200   13.5300   13.5400   13.5500   13.5600   13.5700   13.5800   13.5900
   13.6000   13.6100   13.6200   13.6300   13.6400   13.6500   13.6600   13.6700
   13.6800   13.6900   13.7000   13.7100   13.7200   13.7300   13.7400   13.7500
   13.7600   13.7700   13.7800   13.7900   13.8000   13.8100   13.8200   13.8300
   13.8400   13.8500   13.8600   13.8700   13.8800   13.8900   13.9000   13.9100
   13.9200   13.9300   13.9400   13.9500   13.9600   13.9700   13.9800   13.9900
   14.0000   14.0100   14.0200   14.0300   14.0400   14.0500   14.0600   14.0700
   14.0800   14.0900   14.1000   14.1100   14.1200   14.1300   14.1400   14.1500
   14.1600   14.1700   14.1800   14.1900   14.2000   14.2100   14.2200   14.2300
   14.2400   14.2500   14.2600   14.2700   14.2800   14.2900   14.3000   14.3100
   14.3200   14.3300   14.3400   14.3500   14.3600   14.3700   14.3800   14.3900
   14.4000   14.4100   14.4200   14.4300   14.4400   14.4500   14.4600   14.4700
   14.4800   14.4900   14.5000   14.5100   14.5200   14.5300   14.5400   14.5500
   14.5600   14.5700   14.5800   14.5900   14.6000   14.6100   14.6200   14.6300
   14.6400   14.6500   14.6600   14.6700   14.6800   14.6900   14.7000   14.7100
   14.7200   14.7300   14.7400   14.7500   14.7600   14.7700   14.7800   14.7900
   14.8000   14.8100   14.8200   14.8300   14.8400   14.8500   14.8600   14.8700
   14.8800   14.8900   14.9000   14.9100   14.9200   14.9300   14.9400   14.9500
   14.9600   14.9700   14.9800   14.9900   15.0000   15.0100   15.0200   15.0300
   15.0400   15.0500   15.0600   15.0700   15.0800   15.0900   15.1000   15.1100
   15.1200   15.1300   15.1400   15.1500   15.1600   15.1700   15.1800   15.1900
   15.2000   15.2100   15.2200   15.2300   15.2400   15.2500   15.2600   15.2700
   15.2800   15.2900   15.3000   15.3100   15.3200   15.3300   15.3400   15.3500
   15.3600   15.3700   15.3800   15.3900   15.4000   15.4100   15.4200   15.4300
   15.4400   15.4500   15.4600   15.4700   15.4800   15.4900   15.5000   15.5100
   15.5200   15.5300   15.5400   15.5500   15.5600   15.5700   15.5800   15.5900
   15.6000   15.6100   15.6200   15.6300   15.6400   15.6500   15.6600   15.6700
   15.6800   15.6900   15.7000   15.7100   15.7200   15.7300   15.7400   15.7500
   15.7600   15.7700   15.7800   15.7900   15.8000   15.8100   15.8200   15.8300
   15.8400   15.8500   15.8600   15.8700   15.8800   15.8900   15.9000   15.9100
   15.9200   15.9300   15.9400   15.9500   15.9600   15.9700   15.9800   15.9900
   16.0000   16.0100   16.0200   16.0300   16.0400   16.0500   16.0600   16.0700
   16.0800   16.0900   16.1000   16.1100   16.1200   16.1300   16.1400   16.1500
   16.1600   16.1700   16.1800   16.1900   16.2000   16.2100   16.2200   16.2300
   16.2400   16.2500   16.2600   16.2700   16.2800   16.2900   16.3000   16.3100
   16.3200   16.3300   16.3400   16.3500   16.3600   16.3700   16.3800   16.3900
   16.4000   16.4100   16.4200   16.4300   16.4400   16.4500   16.4600   16.4700
   16.4800   16.4900   16.5000   16.5100   16.5200   16.5300   16.5400   16.5500
   16.5600   16.5700   16.5800   16.5900   16.6000   16.6100   16.6200   16.6300
   16.6400   16.6500   16.6600   16.6700   16.6800   16.6900   16.7000   16.7100
   16.7200   16.7300   16.7400   16.7500   16.7600   16.7700   16.7800   16.7900
   16.8000   16.8100   16.8200   16.8300   16.8400   16.8500   16.8600   16.8700
   16.8800   16.8900   16.9000   16.9100   16.9200   16.9300   16.9400   16.9500
   16.9600   16.9700   16.9800   16.9900   17.0000   17.0100   17.0200   17.0300
   17.0400   17.0500   17.0600   17.0700   17.0800   17.0900   17.1000   17.1100
   17.1200   17.1300   17.1400   17.1500   17.1600   17.1700   17.1800   17.1900
   17.2000   17.2100   17.2200   17.2300   17.2400   17.2500   17.2600   17.2700
   17.2800   17.2900   17.3000   17.3100   17.3200   17.3300   17.3400   17.3500
   17.3600   17.3700   17.3800   17.3900   17.4000   17.4100   17.4200   17.4300
   17.4400   17.4500   17.4600   17.4700   17.4800   17.4900   17.5000   17.5100
   17.5200   17.5300   17.5400   17.5500   17.5600   17.5700   17.5800   17.5900
   17.6000   17.6100   17.6200   17.6300   17.6400   17.6500   17.6600   17.6700
   17.6800   17.6900   17.7000   17.7100   17.7200   17.7300   17.7400   17.7500
   17.7600   17.7700   17.7800   17.7900   17.8000   17.8100   17.8200   17.8300
   17.8400   17.8500   17.8600   17.8700   17.8800   17.8900   17.9000   17.9100
   17.9200   17.9300   17.9400   17.9500   17.9600   17.9700   17.9800   17.9900
   18.0000   18.0100   18.0200   18.0300   18.0400   18.0500   18.0600   18.0700
   18.0800   18.0900   18.1000   18.1100   18.1200   18.1300   18.1400   18.1500
   18.1600   18.1700   18.1800   18.1900   18.2000   18.2100   18.2200   18.2300
   18.2400   18.2500   18.2600   18.2700   18.2800   18.2900   18.3000   18.3100
   18.3200   18.3300   18.3400   18.3500   18.3600   18.3700   18.3800   18.3900
   18.4000   18.4100   18.4200   18.4300   18.4400   18.4500   18.4600   18.4700
   18.4800   18.4900   18.5000   18.5100   18.5200   18.5300   18.5400   18.5500
   18.5600   18.5700   18.5800   18.5900   18.6000   18.6100   18.6200   18.6300
   18.6400   18.6500   18.6600   18.6700   18.6800   18.6900   18.7000   18.7100
   18.7200   18.7300   18.7400   18.7500   18.7600   18.7700   18.7800   18.7900
   18.8000   18.8100   18.8200   18.8300   18.8400   18.8500   18.8600   18.8700
   18.8800   18.8900   18.9000   18.9100   18.9200   18.9300   18.9400   18.9500
   18.9600   18.9700   18.9800   18.9900   19.0000   19.0100   19.0200   19.0300
   19.0400   19.0500   19.0600   19.0700   19.0800   19.0900   19.1000   19.1100
   19.1200   19.1300   19.1400   19.1500   19.1600   19.1700   19.1800   19.1900
   19.2000   19.2100   19.2200   19.2300   19.2400   19.2500   19.2600   19.2700
   19.2800   19.2900   19.3000   19.3100   19.3200   19.3300   19.3400   19.3500
   19.3600   19.3700   19.3800   19.3900
   </PP_R>
   <PP_RAB type="real"  size="1940" columns="8">
    0.0100    0.0100    0.0100    0.0100    0.0100    0.0100    0.0100    0.0100
    0.0100    0.0100    0.0100    0.0100    0.0100    0.0100    0.0100    0.0100
    0.0100    0.0100    0.0100    0.0100    0.0100    0.0100    0.0100    0.0100
    0.0100    0.0100    0.0100    0.0100    0.0100    0.0100    0.0100    0.0100
    0.0100    0.0100    0.0100    0.0100    0.0100    0.0100    0.0100    0.0100
    0.0100    0.0100    0.0100    0.0100    0.0100    0.0100    0.0100    0.0100
    0.0100    0.0100    0.0100    0.0100    0.0100    0.0100    0.0100    0.0100
    0.0100    0.0100    0.0100    0.0100    0.0100    0.0100    0.0100    0.0100
    0.0100    0.0100    0.0100    0.0100    0.0100    0.0100    0.0100    0.0100
    0.0100    0.0100    0.0100    0.0100    0.0100    0.0100    0.0100    0.0100
    0.0100    0.0100    0.0100    0.0100    0.0100    0.0100    0.0100    0.0100
    0.0100    0.0100    0.0100    0.0100    0.0100    0.0100    0.0100    0.0100
    0.0100    0.0100    0.0100    0.0100    0.0100    0.0100    0.0100    0.0100
    0.0100    0.0100    0.0100    0.0100    0.0100    0.0100    0.0100    0.0100
    0.0100    0.0100    0.0100    0.0100    0.0100    0.0100    0.0100    0.0100
    0.0100    0.0100    0.0100    0.0100    0.0100    0.0100    0.0100    0.0100
    0.0100    0.0100    0.0100    0.0100    0.0100    0.0100    0.0100    0.0100
    0.0100    0.0100    0.0100    0.0100    0.0100    0.0100    0.0100    0.0100
    0.0100    0.0100    0.0100    0.0100    0.0100    0.0100    0.0100    0.0100
    0.0100    0.0100    0.0100    0.0100    0.0100    0.0100    0.0100    0.0100
    0.0100    0.0100    0.0100    0.0100    0.0100    0.0100    0.0100    0.0100
    0.0100    0.0100    0.0100    0.0100    0.0100    0.0100    0.0100    0.0100
    0.0100    0.0100    0.0100    0.0100    0.0100    0.0100    0.0100    0.0100
    0.0100    0.0100    0.0100    0.0100    0.0100    0.0100    0.0100    0.0100
    0.0100    0.0100    0.0100    0.0100    0.0100    0.0100    0.0100    0.0100
    0.0100    0.0100    0.0100    0.0100    0.0100    0.0100    0.0100    0.0100
    0.0100    0.0100    0.0100    0.0100    0.0100    0.0100    0.0100    0.0100
    0.0100    0.0100    0.0100    0.0100    0.0100    0.0100    0.0100    0.0100
    0.0100    0.0100    0.0100    0.0100    0.0100    0.0100    0.0100    0.0100
    0.0100    0.0100    0.0100    0.0100    0.0100    0.0100    0.0100    0.0100
    0.0100    0.0100    0.0100    0.0100    0.0100    0.0100    0.0100    0.0100
    0.0100    0.0100    0.0100    0.0100    0.0100    0.0100    0.0100    0.0100
    0.0100    0.0100    0.0100    0.0100    0.0100    0.0100    0.0100    0.0100
    0.0100    0.0100    0.0100    0.0100    0.0100    0.0100    0.0100    0.0100
    0.0100    0.0100    0.0100    0.0100    0.0100    0.0100    0.0100    0.0100
    0.0100    0.0100    0.0100    0.0100    0.0100    0.0100    0.0100    0.0100
    0.0100    0.0100    0.0100    0.0100    0.0100    0.0100    0.0100    0.0100
    0.0100    0.0100    0.0100    0.0100    0.0100    0.0100    0.0100    0.0100
    0.0100    0.0100    0.0100    0.0100    0.0100    0.0100    0.0100    0.0100
    0.0100    0.0100    0.0100    0.0100    0.0100    0.0100    0.0100    0.0100
    0.0100    0.0100    0.0100    0.0100    0.0100    0.0100    0.0100    0.0100
    0.0100    0.0100    0.0100    0.0100    0.0100    0.0100    0.0100    0.0100
    0.0100    0.0100    0.0100    0.0100    0.0100    0.0100    0.0100    0.0100
    0.0100    0.0100    0.0100    0.0100    0.0100    0.0100    0.0100    0.0100
    0.0100    0.0100    0.0100    0.0100    0.0100    0.0100    0.0100    0.0100
    0.0100    0.0100    0.0100    0.0100    0.0100    0.0100    0.0100    0.0100
    0.0100    0.0100    0.0100    0.0100    0.0100    0.0100    0.0100    0.0100
    0.0100    0.0100    0.0100    0.0100    0.0100    0.0100    0.0100    0.0100
    0.0100    0.0100    0.0100    0.0100    0.0100    0.0100    0.0100    0.0100
    0.0100    0.0100    0.0100    0.0100    0.0100    0.0100    0.0100    0.0100
    0.0100    0.0100    0.0100    0.0100    0.0100    0.0100    0.0100    0.0100
    0.0100    0.0100    0.0100    0.0100    0.0100    0.0100    0.0100    0.0100
    0.0100    0.0100    0.0100    0.0100    0.0100    0.0100    0.0100    0.0100
    0.0100    0.0100    0.0100    0.0100    0.0100    0.0100    0.0100    0.0100
    0.0100    0.0100    0.0100    0.0100    0.0100    0.0100    0.0100    0.0100
    0.0100    0.0100    0.0100    0.0100    0.0100    0.0100    0.0100    0.0100
    0.0100    0.0100    0.0100    0.0100    0.0100    0.0100    0.0100    0.0100
    0.0100    0.0100    0.0100    0.0100    0.0100    0.0100    0.0100    0.0100
    0.0100    0.0100    0.0100    0.0100    0.0100    0.0100    0.0100    0.0100
    0.0100    0.0100    0.0100    0.0100    0.0100    0.0100    0.0100    0.0100
    0.0100    0.0100    0.0100    0.0100    0.0100    0.0100    0.0100    0.0100
    0.0100    0.0100    0.0100    0.0100    0.0100    0.0100    0.0100    0.0100
    0.0100    0.0100    0.0100    0.0100    0.0100    0.0100    0.0100    0.0100
    0.0100    0.0100    0.0100    0.0100    0.0100    0.0100    0.0100    0.0100
    0.0100    0.0100    0.0100    0.0100    0.0100    0.0100    0.0100    0.0100
    0.0100    0.0100    0.0100    0.0100    0.0100    0.0100    0.0100    0.0100
    0.0100    0.0100    0.0100    0.0100    0.0100    0.0100    0.0100    0.0100
    0.0100    0.0100    0.0100    0.0100    0.0100    0.0100    0.0100    0.0100
    0.0100    0.0100    0.0100    0.0100    0.0100    0.0100    0.0100    0.0100
    0.0100    0.0100    0.0100    0.0100    0.0100    0.0100    0.0100    0.0100
    0.0100    0.0100    0.0100    0.0100    0.0100    0.0100    0.0100    0.0100
    0.0100    0.0100    0.0100    0.0100    0.0100    0.0100    0.0100    0.0100
    0.0100    0.0100    0.0100    0.0100    0.0100    0.0100    0.0100    0.0100
    0.0100    0.0100    0.0100    0.0100    0.0100    0.0100    0.0100    0.0100
    0.0100    0.0100    0.0100    0.0100    0.0100    0.0100    0.0100    0.0100
    0.0100    0.0100    0.0100    0.0100    0.0100    0.0100    0.0100    0.0100
    0.0100    0.0100    0.0100    0.0100    0.0100    0.0100    0.0100    0.0100
    0.0100    0.0100    0.0100    0.0100    0.0100    0.0100    0.0100    0.0100
    0.0100    0.0100    0.0100    0.0100    0.0100    0.0100    0.0100    0.0100
    0.0100    0.0100    0.0100    0.0100    0.0100    0.0100    0.0100    0.0100
    0.0100    0.0100    0.0100    0.0100    0.0100    0.0100    0.0100    0.0100
    0.0100    0.0100    0.0100    0.0100    0.0100    0.0100    0.0100    0.0100
    0.0100    0.0100    0.0100    0.0100    0.0100    0.0100    0.0100    0.0100
    0.0100    0.0100    0.0100    0.0100    0.0100    0.0100    0.0100    0.0100
    0.0100    0.0100    0.0100    0.0100    0.0100    0.0100    0.0100    0.0100
    0.0100    0.0100    0.0100    0.0100    0.0100    0.0100    0.0100    0.0100
    0.0100    0.0100    0.0100    0.0100    0.0100    0.0100    0.0100    0.0100
    0.0100    0.0100    0.0100    0.0100    0.0100    0.0100    0.0100    0.0100
    0.0100    0.0100    0.0100    0.0100    0.0100    0.0100    0.0100    0.0100
    0.0100    0.0100    0.0100    0.0100    0.0100    0.0100    0.0100    0.0100
    0.0100    0.0100    0.0100    0.0100    0.0100    0.0100    0.0100    0.0100
    0.0100    0.0100    0.0100    0.0100    0.0100    0.0100    0.0100    0.0100
    0.0100    0.0100    0.0100    0.0100    0.0100    0.0100    0.0100    0.0100
    0.0100    0.0100    0.0100    0.0100    0.0100    0.0100    0.0100    0.0100
    0.0100    0.0100    0.0100    0.0100    0.0100    0.0100    0.0100    0.0100
    0.0100    0.0100    0.0100    0.0100    0.0100    0.0100    0.0100    0.0100
    0.0100    0.0100    0.0100    0.0100    0.0100    0.0100    0.0100    0.0100
    0.0100    0.0100    0.0100    0.0100    0.0100    0.0100    0.0100    0.0100
    0.0100    0.0100    0.0100    0.0100    0.0100    0.0100    0.0100    0.0100
    0.0100    0.0100    0.0100    0.0100    0.0100    0.0100    0.0100    0.0100
    0.0100    0.0100    0.0100    0.0100    0.0100    0.0100    0.0100    0.0100
    0.0100    0.0100    0.0100    0.0100    0.0100    0.0100    0.0100    0.0100
    0.0100    0.0100    0.0100    0.0100    0.0100    0.0100    0.0100    0.0100
    0.0100    0.0100    0.0100    0.0100    0.0100    0.0100    0.0100    0.0100
    0.0100    0.0100    0.0100    0.0100    0.0100    0.0100    0.0100    0.0100
    0.0100    0.0100    0.0100    0.0100    0.0100    0.0100    0.0100    0.0100
    0.0100    0.0100    0.0100    0.0100    0.0100    0.0100    0.0100    0.0100
    0.0100    0.0100    0.0100    0.0100    0.0100    0.0100    0.0100    0.0100
    0.0100    0.0100    0.0100    0.0100    0.0100    0.0100    0.0100    0.0100
    0.0100    0.0100    0.0100    0.0100    0.0100    0.0100    0.0100    0.0100
    0.0100    0.0100    0.0100    0.0100    0.0100    0.0100    0.0100    0.0100
    0.0100    0.0100    0.0100    0.0100    0.0100    0.0100    0.0100    0.0100
    0.0100    0.0100    0.0100    0.0100    0.0100    0.0100    0.0100    0.0100
    0.0100    0.0100    0.0100    0.0100    0.0100    0.0100    0.0100    0.0100
    0.0100    0.0100    0.0100    0.0100    0.0100    0.0100    0.0100    0.0100
    0.0100    0.0100    0.0100    0.0100    0.0100    0.0100    0.0100    0.0100
    0.0100    0.0100    0.0100    0.0100    0.0100    0.0100    0.0100    0.0100
    0.0100    0.0100    0.0100    0.0100    0.0100    0.0100    0.0100    0.0100
    0.0100    0.0100    0.0100    0.0100    0.0100    0.0100    0.0100    0.0100
    0.0100    0.0100    0.0100    0.0100    0.0100    0.0100    0.0100    0.0100
    0.0100    0.0100    0.0100    0.0100    0.0100    0.0100    0.0100    0.0100
    0.0100    0.0100    0.0100    0.0100    0.0100    0.0100    0.0100    0.0100
    0.0100    0.0100    0.0100    0.0100    0.0100    0.0100    0.0100    0.0100
    0.0100    0.0100    0.0100    0.0100    0.0100    0.0100    0.0100    0.0100
    0.0100    0.0100    0.0100    0.0100    0.0100    0.0100    0.0100    0.0100
    0.0100    0.0100    0.0100    0.0100    0.0100    0.0100    0.0100    0.0100
    0.0100    0.0100    0.0100    0.0100    0.0100    0.0100    0.0100    0.0100
    0.0100    0.0100    0.0100    0.0100    0.0100    0.0100    0.0100    0.0100
    0.0100    0.0100    0.0100    0.0100    0.0100    0.0100    0.0100    0.0100
    0.0100    0.0100    0.0100    0.0100    0.0100    0.0100    0.0100    0.0100
    0.0100    0.0100    0.0100    0.0100    0.0100    0.0100    0.0100    0.0100
    0.0100    0.0100    0.0100    0.0100    0.0100    0.0100    0.0100    0.0100
    0.0100    0.0100    0.0100    0.0100    0.0100    0.0100    0.0100    0.0100
    0.0100    0.0100    0.0100    0.0100    0.0100    0.0100    0.0100    0.0100
    0.0100    0.0100    0.0100    0.0100    0.0100    0.0100    0.0100    0.0100
    0.0100    0.0100    0.0100    0.0100    0.0100    0.0100    0.0100    0.0100
    0.0100    0.0100    0.0100    0.0100    0.0100    0.0100    0.0100    0.0100
    0.0100    0.0100    0.0100    0.0100    0.0100    0.0100    0.0100    0.0100
    0.0100    0.0100    0.0100    0.0100    0.0100    0.0100    0.0100    0.0100
    0.0100    0.0100    0.0100    0.0100    0.0100    0.0100    0.0100    0.0100
    0.0100    0.0100    0.0100    0.0100    0.0100    0.0100    0.0100    0.0100
    0.0100    0.0100    0.0100    0.0100    0.0100    0.0100    0.0100    0.0100
    0.0100    0.0100    0.0100    0.0100    0.0100    0.0100    0.0100    0.0100
    0.0100    0.0100    0.0100    0.0100    0.0100    0.0100    0.0100    0.0100
    0.0100    0.0100    0.0100    0.0100    0.0100    0.0100    0.0100    0.0100
    0.0100    0.0100    0.0100    0.0100    0.0100    0.0100    0.0100    0.0100
    0.0100    0.0100    0.0100    0.0100    0.0100    0.0100    0.0100    0.0100
    0.0100    0.0100    0.0100    0.0100    0.0100    0.0100    0.0100    0.0100
    0.0100    0.0100    0.0100    0.0100    0.0100    0.0100    0.0100    0.0100
    0.0100    0.0100    0.0100    0.0100    0.0100    0.0100    0.0100    0.0100
    0.0100    0.0100    0.0100    0.0100    0.0100    0.0100    0.0100    0.0100
    0.0100    0.0100    0.0100    0.0100    0.0100    0.0100    0.0100    0.0100
    0.0100    0.0100    0.0100    0.0100    0.0100    0.0100    0.0100    0.0100
    0.0100    0.0100    0.0100    0.0100    0.0100    0.0100    0.0100    0.0100
    0.0100    0.0100    0.0100    0.0100    0.0100    0.0100    0.0100    0.0100
    0.0100    0.0100    0.0100    0.0100    0.0100    0.0100    0.0100    0.0100
    0.0100    0.0100    0.0100    0.0100    0.0100    0.0100    0.0100    0.0100
    0.0100    0.0100    0.0100    0.0100    0.0100    0.0100    0.0100    0.0100
    0.0100    0.0100    0.0100    0.0100    0.0100    0.0100    0.0100    0.0100
    0.0100    0.0100    0.0100    0.0100    0.0100    0.0100    0.0100    0.0100
    0.0100    0.0100    0.0100    0.0100    0.0100    0.0100    0.0100    0.0100
    0.0100    0.0100    0.0100    0.0100    0.0100    0.0100    0.0100    0.0100
    0.0100    0.0100    0.0100    0.0100    0.0100    0.0100    0.0100    0.0100
    0.0100    0.0100    0.0100    0.0100    0.0100    0.0100    0.0100    0.0100
    0.0100    0.0100    0.0100    0.0100    0.0100    0.0100    0.0100    0.0100
    0.0100    0.0100    0.0100    0.0100    0.0100    0.0100    0.0100    0.0100
    0.0100    0.0100    0.0100    0.0100    0.0100    0.0100    0.0100    0.0100
    0.0100    0.0100    0.0100    0.0100    0.0100    0.0100    0.0100    0.0100
    0.0100    0.0100    0.0100    0.0100    0.0100    0.0100    0.0100    0.0100
    0.0100    0.0100    0.0100    0.0100    0.0100    0.0100    0.0100    0.0100
    0.0100    0.0100    0.0100    0.0100    0.0100    0.0100    0.0100    0.0100
    0.0100    0.0100    0.0100    0.0100    0.0100    0.0100    0.0100    0.0100
    0.0100    0.0100    0.0100    0.0100    0.0100    0.0100    0.0100    0.0100
    0.0100    0.0100    0.0100    0.0100    0.0100    0.0100    0.0100    0.0100
    0.0100    0.0100    0.0100    0.0100    0.0100    0.0100    0.0100    0.0100
    0.0100    0.0100    0.0100    0.0100    0.0100    0.0100    0.0100    0.0100
    0.0100    0.0100    0.0100    0.0100    0.0100    0.0100    0.0100    0.0100
    0.0100    0.0100    0.0100    0.0100    0.0100    0.0100    0.0100    0.0100
    0.0100    0.0100    0.0100    0.0100    0.0100    0.0100    0.0100    0.0100
    0.0100    0.0100    0.0100    0.0100    0.0100    0.0100    0.0100    0.0100
    0.0100    0.0100    0.0100    0.0100    0.0100    0.0100    0.0100    0.0100
    0.0100    0.0100    0.0100    0.0100    0.0100    0.0100    0.0100    0.0100
    0.0100    0.0100    0.0100    0.0100    0.0100    0.0100    0.0100    0.0100
    0.0100    0.0100    0.0100    0.0100    0.0100    0.0100    0.0100    0.0100
    0.0100    0.0100    0.0100    0.0100    0.0100    0.0100    0.0100    0.0100
    0.0100    0.0100    0.0100    0.0100    0.0100    0.0100    0.0100    0.0100
    0.0100    0.0100    0.0100    0.0100    0.0100    0.0100    0.0100    0.0100
    0.0100    0.0100    0.0100    0.0100    0.0100    0.0100    0.0100    0.0100
    0.0100    0.0100    0.0100    0.0100    0.0100    0.0100    0.0100    0.0100
    0.0100    0.0100    0.0100    0.0100    0.0100    0.0100    0.0100    0.0100
    0.0100    0.0100    0.0100    0.0100    0.0100    0.0100    0.0100    0.0100
    0.0100    0.0100    0.0100    0.0100    0.0100    0.0100    0.0100    0.0100
    0.0100    0.0100    0.0100    0.0100    0.0100    0.0100    0.0100    0.0100
    0.0100    0.0100    0.0100    0.0100    0.0100    0.0100    0.0100    0.0100
    0.0100    0.0100    0.0100    0.0100    0.0100    0.0100    0.0100    0.0100
    0.0100    0.0100    0.0100    0.0100    0.0100    0.0100    0.0100    0.0100
    0.0100    0.0100    0.0100    0.0100    0.0100    0.0100    0.0100    0.0100
    0.0100    0.0100    0.0100    0.0100    0.0100    0.0100    0.0100    0.0100
    0.0100    0.0100    0.0100    0.0100    0.0100    0.0100    0.0100    0.0100
    0.0100    0.0100    0.0100    0.0100    0.0100    0.0100    0.0100    0.0100
    0.0100    0.0100    0.0100    0.0100    0.0100    0.0100    0.0100    0.0100
    0.0100    0.0100    0.0100    0.0100    0.0100    0.0100    0.0100    0.0100
    0.0100    0.0100    0.0100    0.0100    0.0100    0.0100    0.0100    0.0100
    0.0100    0.0100    0.0100    0.0100    0.0100    0.0100    0.0100    0.0100
    0.0100    0.0100    0.0100    0.0100    0.0100    0.0100    0.0100    0.0100
    0.0100    0.0100    0.0100    0.0100    0.0100    0.0100    0.0100    0.0100
    0.0100    0.0100    0.0100    0.0100    0.0100    0.0100    0.0100    0.0100
    0.0100    0.0100    0.0100    0.0100    0.0100    0.0100    0.0100    0.0100
    0.0100    0.0100    0.0100    0.0100    0.0100    0.0100    0.0100    0.0100
    0.0100    0.0100    0.0100    0.0100    0.0100    0.0100    0.0100    0.0100
    0.0100    0.0100    0.0100    0.0100    0.0100    0.0100    0.0100    0.0100
    0.0100    0.0100    0.0100    0.0100    0.0100    0.0100    0.0100    0.0100
    0.0100    0.0100    0.0100    0.0100    0.0100    0.0100    0.0100    0.0100
    0.0100    0.0100    0.0100    0.0100    0.0100    0.0100    0.0100    0.0100
    0.0100    0.0100    0.0100    0.0100    0.0100    0.0100    0.0100    0.0100
    0.0100    0.0100    0.0100    0.0100    0.0100    0.0100    0.0100    0.0100
    0.0100    0.0100    0.0100    0.0100    0.0100    0.0100    0.0100    0.0100
    0.0100    0.0100    0.0100    0.0100    0.0100    0.0100    0.0100    0.0100
    0.0100    0.0100    0.0100    0.0100    0.0100    0.0100    0.0100    0.0100
    0.0100    0.0100    0.0100    0.0100    0.0100    0.0100    0.0100    0.0100
    0.0100    0.0100    0.0100    0.0100    0.0100    0.0100    0.0100    0.0100
    0.0100    0.0100    0.0100    0.0100    0.0100    0.0100    0.0100    0.0100
    0.0100    0.0100    0.0100    0.0100    0.0100    0.0100    0.0100    0.0100
    0.0100    0.0100    0.0100    0.0100    0.0100    0.0100    0.0100    0.0100
    0.0100    0.0100    0.0100    0.0100    0.0100    0.0100    0.0100    0.0100
    0.0100    0.0100    0.0100    0.0100    0.0100    0.0100    0.0100    0.0100
    0.0100    0.0100    0.0100    0.0100    0.0100    0.0100    0.0100    0.0100
    0.0100    0.0100    0.0100    0.0100    0.0100    0.0100    0.0100    0.0100
    0.0100    0.0100    0.0100    0.0100    0.0100    0.0100    0.0100    0.0100
    0.0100    0.0100    0.0100    0.0100    0.0100    0.0100    0.0100    0.0100
    0.0100    0.0100    0.0100    0.0100    0.0100    0.0100    0.0100    0.0100
    0.0100    0.0100    0.0100    0.0100    0.0100    0.0100    0.0100    0.0100
    0.0100    0.0100    0.0100    0.0100    0.0100    0.0100    0.0100    0.0100
    0.0100    0.0100    0.0100    0.0100    0.0100    0.0100    0.0100    0.0100
    0.0100    0.0100    0.0100    0.0100    0.0100    0.0100    0.0100    0.0100
    0.0100    0.0100    0.0100    0.0100    0.0100    0.0100    0.0100    0.0100
    0.0100    0.0100    0.0100    0.0100    0.0100    0.0100    0.0100    0.0100
    0.0100    0.0100    0.0100    0.0100    0.0100    0.0100    0.0100    0.0100
    0.0100    0.0100    0.0100    0.0100    0.0100    0.0100    0.0100    0.0100
    0.0100    0.0100    0.0100    0.0100    0.0100    0.0100    0.0100    0.0100
    0.0100    0.0100    0.0100    0.0100    0.0100    0.0100    0.0100    0.0100
    0.0100    0.0100    0.0100    0.0100    0.0100    0.0100    0.0100    0.0100
    0.0100    0.0100    0.0100    0.0100
   </PP_RAB>
 </PP_MESH>
  <PP_LOCAL type="real"  size="1940" columns="4">
   -2.4278286691E+01   -2.4277659545E+01   -2.4275560544E+01   -2.4272062613E+01
   -2.4267166367E+01   -2.4260872675E+01   -2.4253182659E+01   -2.4244097698E+01
   -2.4233619445E+01   -2.4221749823E+01   -2.4208491044E+01   -2.4193845616E+01
   -2.4177816350E+01   -2.4160406381E+01   -2.4141619172E+01   -2.4121458532E+01
   -2.4099928627E+01   -2.4077033990E+01   -2.4052779535E+01   -2.4027170566E+01
   -2.4000212791E+01   -2.3971912323E+01   -2.3942275692E+01   -2.3911309850E+01
   -2.3879022170E+01   -2.3845420449E+01   -2.3810512902E+01   -2.3774308160E+01
   -2.3736815257E+01   -2.3698043615E+01   -2.3658003032E+01   -2.3616703659E+01
   -2.3574155974E+01   -2.3530370757E+01   -2.3485359059E+01   -2.3439132169E+01
   -2.3391701581E+01   -2.3343078957E+01   -2.3293276091E+01   -2.3242304879E+01
   -2.3190177284E+01   -2.3136905307E+01   -2.3082500962E+01   -2.3026976258E+01
   -2.2970343185E+01   -2.2912613706E+01   -2.2853799758E+01   -2.2793913261E+01
   -2.2732966132E+01   -2.2670970306E+01   -2.2607937771E+01   -2.2543880597E+01
   -2.2478810978E+01   -2.2412741276E+01   -2.2345684061E+01   -2.2277652160E+01
   -2.2208658694E+01   -2.2138717115E+01   -2.2067841243E+01   -2.1996045281E+01
   -2.1923343838E+01   -2.1849751925E+01   -2.1775284954E+01   -2.1699958716E+01
   -2.1623789352E+01   -2.1546793311E+01   -2.1468987295E+01   -2.1390388202E+01
   -2.1311013052E+01   -2.1230878912E+01   -2.1150002811E+01   -2.1068401660E+01
   -2.0986092165E+01   -2.0903090736E+01   -2.0819413409E+01   -2.0735075761E+01
   -2.0650092838E+01   -2.0564479077E+01   -2.0478248244E+01   -2.0391413371E+01
   -2.0303986700E+01   -2.0215979633E+01   -2.0127402683E+01   -2.0038265433E+01
   -1.9948576489E+01   -1.9858343441E+01   -1.9767572818E+01   -1.9676270045E+01
   -1.9584439391E+01   -1.9492083913E+01   -1.9399205393E+01   -1.9305804269E+01
   -1.9211879548E+01   -1.9117428717E+01   -1.9022447630E+01   -1.8926930393E+01
   -1.8830869231E+01   -1.8734254333E+01   -1.8637073701E+01   -1.8539312970E+01
   -1.8440955236E+01   -1.8341980864E+01   -1.8242367316E+01   -1.8142088974E+01
   -1.8041116994E+01   -1.7939419192E+01   -1.7836959988E+01   -1.7733700416E+01
   -1.7629598248E+01   -1.7524608237E+01   -1.7418682535E+01   -1.7311771308E+01
   -1.7203823596E+01   -1.7094788459E+01   -1.6984616425E+01   -1.6873261291E+01
   -1.6760682260E+01   -1.6646846403E+01   -1.6531731389E+01   -1.6415328365E+01
   -1.6297644826E+01   -1.6178707207E+01   -1.6058562891E+01   -1.5937281199E+01
   -1.5814952931E+01   -1.5691687956E+01   -1.5567610479E+01   -1.5442851788E+01
   -1.5317540575E+01   -1.5191771445E+01   -1.5067240274E+01   -1.4949883591E+01
   -1.4839924495E+01   -1.4736241780E+01   -1.4637544015E+01   -1.4542695801E+01
   -1.4450842335E+01   -1.4361406033E+01   -1.4274017086E+01   -1.4188423877E+01
   -1.4104413339E+01   -1.4021756947E+01   -1.3940186443E+01   -1.3859395332E+01
   -1.3779057751E+01   -1.3698863182E+01   -1.3618570718E+01   -1.3538016245E+01
   -1.3457114304E+01   -1.3375857216E+01   -1.3294306139E+01   -1.3212576730E+01
   -1.3130822068E+01   -1.3049215198E+01   -1.2967933130E+01   -1.2887143478E+01
   -1.2806994395E+01   -1.2727607957E+01   -1.2649076769E+01   -1.2571463390E+01
   -1.2494801969E+01   -1.2419101493E+01   -1.2344350028E+01   -1.2270519422E+01
   -1.2197569991E+01   -1.2125454869E+01   -1.2054123746E+01   -1.1983525881E+01
   -1.1913612331E+01   -1.1844337426E+01   -1.1775659572E+01   -1.1707541504E+01
   -1.1639950135E+01   -1.1572856148E+01   -1.1506233584E+01   -1.1440055243E+01
   -1.1374362229E+01   -1.1309403542E+01   -1.1245237591E+01   -1.1181855693E+01
   -1.1119252475E+01   -1.1057403346E+01   -1.0996259051E+01   -1.0935803010E+01
   -1.0876023156E+01   -1.0816907540E+01   -1.0758444503E+01   -1.0700622695E+01
   -1.0643431057E+01   -1.0586858808E+01   -1.0530895440E+01   -1.0475530703E+01
   -1.0420754600E+01   -1.0366557373E+01   -1.0312930155E+01   -1.0259862125E+01
   -1.0207367171E+01   -1.0155360007E+01   -1.0103927731E+01   -1.0053008635E+01
   -1.0002607546E+01   -9.9527149638E+00   -9.9033229380E+00   -9.8544237496E+00
   -9.8060098320E+00   -9.7580737831E+00   -9.7106083598E+00   -9.6636064757E+00
   -9.6170611810E+00   -9.5709657134E+00   -9.5253133950E+00   -9.4800977090E+00
   -9.4353122143E+00   -9.3909506050E+00   -9.3470067190E+00   -9.3034745320E+00
   -9.2603481508E+00   -9.2176218083E+00   -9.1752898580E+00   -9.1333467700E+00
   -9.0917871258E+00   -9.0506056152E+00   -9.0097970317E+00   -8.9693562698E+00
   -8.9292783215E+00   -8.8895582731E+00   -8.8501913026E+00   -8.8111726772E+00
   -8.7724977503E+00   -8.7341619597E+00   -8.6961608249E+00   -8.6584899455E+00
   -8.6211449987E+00   -8.5841217376E+00   -8.5474159895E+00   -8.5110236540E+00
   -8.4749407014E+00   -8.4391631710E+00   -8.4036871702E+00   -8.3685088706E+00
   -8.3336245267E+00   -8.2990303486E+00   -8.2647228612E+00   -8.2306984078E+00
   -8.1969534294E+00   -8.1634845134E+00   -8.1302882519E+00   -8.0973613005E+00
   -8.0647003704E+00   -8.0323022267E+00   -8.0001636880E+00   -7.9682816249E+00
   -7.9366529595E+00   -7.9052746642E+00   -7.8741437610E+00   -7.8432573203E+00
   -7.8126124605E+00   -7.7822063468E+00   -7.7520361904E+00   -7.7220992477E+00
   -7.6923928192E+00   -7.6629142492E+00   -7.6336609240E+00   -7.6046302717E+00
   -7.5758197613E+00   -7.5472269010E+00   -7.5188492382E+00   -7.4906843577E+00
   -7.4627298812E+00   -7.4349834660E+00   -7.4074428041E+00   -7.3801056212E+00
   -7.3529696754E+00   -7.3260327568E+00   -7.2992926859E+00   -7.2727473135E+00
   -7.2463945193E+00   -7.2202322118E+00   -7.1942583273E+00   -7.1684708299E+00
   -7.1428677108E+00   -7.1174469883E+00   -7.0922067077E+00   -7.0671449408E+00
   -7.0422597864E+00   -7.0175493700E+00   -6.9930118437E+00   -6.9686453864E+00
   -6.9444482035E+00   -6.9204185269E+00   -6.8965546146E+00   -6.8728547503E+00
   -6.8493172433E+00   -6.8259404275E+00   -6.8027226611E+00   -6.7796623257E+00
   -6.7567578259E+00   -6.7340075883E+00   -6.7114100610E+00   -6.6889637125E+00
   -6.6666670314E+00   -6.6445185260E+00   -6.6225167232E+00   -6.6006601685E+00
   -6.5789474261E+00   -6.5573770780E+00   -6.5359477246E+00   -6.5146579844E+00
   -6.4935064943E+00   -6.4724919094E+00   -6.4516129032E+00   -6.4308681672E+00
   -6.4102564103E+00   -6.3897763578E+00   -6.3694267516E+00   -6.3492063492E+00
   -6.3291139241E+00   -6.3091482650E+00   -6.2893081761E+00   -6.2695924765E+00
   -6.2500000000E+00   -6.2305295950E+00   -6.2111801242E+00   -6.1919504644E+00
   -6.1728395062E+00   -6.1538461538E+00   -6.1349693252E+00   -6.1162079511E+00
   -6.0975609756E+00   -6.0790273556E+00   -6.0606060606E+00   -6.0422960725E+00
   -6.0240963855E+00   -6.0060060060E+00   -5.9880239521E+00   -5.9701492537E+00
   -5.9523809524E+00   -5.9347181009E+00   -5.9171597633E+00   -5.8997050147E+00
   -5.8823529412E+00   -5.8651026393E+00   -5.8479532164E+00   -5.8309037901E+00
   -5.8139534884E+00   -5.7971014493E+00   -5.7803468208E+00   -5.7636887608E+00
   -5.7471264368E+00   -5.7306590258E+00   -5.7142857143E+00   -5.6980056980E+00
   -5.6818181818E+00   -5.6657223796E+00   -5.6497175141E+00   -5.6338028169E+00
   -5.6179775281E+00   -5.6022408964E+00   -5.5865921788E+00   -5.5710306407E+00
   -5.5555555556E+00   -5.5401662050E+00   -5.5248618785E+00   -5.5096418733E+00
   -5.4945054945E+00   -5.4794520548E+00   -5.4644808743E+00   -5.4495912807E+00
   -5.4347826087E+00   -5.4200542005E+00   -5.4054054054E+00   -5.3908355795E+00
   -5.3763440860E+00   -5.3619302949E+00   -5.3475935829E+00   -5.3333333333E+00
   -5.3191489362E+00   -5.3050397878E+00   -5.2910052910E+00   -5.2770448549E+00
   -5.2631578947E+00   -5.2493438320E+00   -5.2356020942E+00   -5.2219321149E+00
   -5.2083333333E+00   -5.1948051948E+00   -5.1813471503E+00   -5.1679586563E+00
   -5.1546391753E+00   -5.1413881748E+00   -5.1282051282E+00   -5.1150895141E+00
   -5.1020408163E+00   -5.0890585242E+00   -5.0761421320E+00   -5.0632911392E+00
   -5.0505050505E+00   -5.0377833753E+00   -5.0251256281E+00   -5.0125313283E+00
   -5.0000000000E+00   -4.9875311721E+00   -4.9751243781E+00   -4.9627791563E+00
   -4.9504950495E+00   -4.9382716049E+00   -4.9261083744E+00   -4.9140049140E+00
   -4.9019607843E+00   -4.8899755501E+00   -4.8780487805E+00   -4.8661800487E+00
   -4.8543689320E+00   -4.8426150121E+00   -4.8309178744E+00   -4.8192771084E+00
   -4.8076923077E+00   -4.7961630695E+00   -4.7846889952E+00   -4.7732696897E+00
   -4.7619047619E+00   -4.7505938242E+00   -4.7393364929E+00   -4.7281323877E+00
   -4.7169811321E+00   -4.7058823529E+00   -4.6948356808E+00   -4.6838407494E+00
   -4.6728971963E+00   -4.6620046620E+00   -4.6511627907E+00   -4.6403712297E+00
   -4.6296296296E+00   -4.6189376443E+00   -4.6082949309E+00   -4.5977011494E+00
   -4.5871559633E+00   -4.5766590389E+00   -4.5662100457E+00   -4.5558086560E+00
   -4.5454545455E+00   -4.5351473923E+00   -4.5248868778E+00   -4.5146726862E+00
   -4.5045045045E+00   -4.4943820225E+00   -4.4843049327E+00   -4.4742729306E+00
   -4.4642857143E+00   -4.4543429844E+00   -4.4444444444E+00   -4.4345898004E+00
   -4.4247787611E+00   -4.4150110375E+00   -4.4052863436E+00   -4.3956043956E+00
   -4.3859649123E+00   -4.3763676149E+00   -4.3668122271E+00   -4.3572984749E+00
   -4.3478260870E+00   -4.3383947939E+00   -4.3290043290E+00   -4.3196544276E+00
   -4.3103448276E+00   -4.3010752688E+00   -4.2918454936E+00   -4.2826552463E+00
   -4.2735042735E+00   -4.2643923241E+00   -4.2553191489E+00   -4.2462845011E+00
   -4.2372881356E+00   -4.2283298097E+00   -4.2194092827E+00   -4.2105263158E+00
   -4.2016806723E+00   -4.1928721174E+00   -4.1841004184E+00   -4.1753653445E+00
   -4.1666666667E+00   -4.1580041580E+00   -4.1493775934E+00   -4.1407867495E+00
   -4.1322314050E+00   -4.1237113402E+00   -4.1152263374E+00   -4.1067761807E+00
   -4.0983606557E+00   -4.0899795501E+00   -4.0816326531E+00   -4.0733197556E+00
   -4.0650406504E+00   -4.0567951318E+00   -4.0485829960E+00   -4.0404040404E+00
   -4.0322580645E+00   -4.0241448692E+00   -4.0160642570E+00   -4.0080160321E+00
   -4.0000000000E+00   -3.9920159681E+00   -3.9840637450E+00   -3.9761431412E+00
   -3.9682539683E+00   -3.9603960396E+00   -3.9525691700E+00   -3.9447731755E+00
   -3.9370078740E+00   -3.9292730845E+00   -3.9215686275E+00   -3.9138943249E+00
   -3.9062500000E+00   -3.8986354776E+00   -3.8910505837E+00   -3.8834951456E+00
   -3.8759689922E+00   -3.8684719536E+00   -3.8610038610E+00   -3.8535645472E+00
   -3.8461538462E+00   -3.8387715931E+00   -3.8314176245E+00   -3.8240917782E+00
   -3.8167938931E+00   -3.8095238095E+00   -3.8022813688E+00   -3.7950664137E+00
   -3.7878787879E+00   -3.7807183365E+00   -3.7735849057E+00   -3.7664783427E+00
   -3.7593984962E+00   -3.7523452158E+00   -3.7453183521E+00   -3.7383177570E+00
   -3.7313432836E+00   -3.7243947858E+00   -3.7174721190E+00   -3.7105751391E+00
   -3.7037037037E+00   -3.6968576710E+00   -3.6900369004E+00   -3.6832412523E+00
   -3.6764705882E+00   -3.6697247706E+00   -3.6630036630E+00   -3.6563071298E+00
   -3.6496350365E+00   -3.6429872495E+00   -3.6363636364E+00   -3.6297640653E+00
   -3.6231884058E+00   -3.6166365280E+00   -3.6101083032E+00   -3.6036036036E+00
   -3.5971223022E+00   -3.5906642729E+00   -3.5842293907E+00   -3.5778175313E+00
   -3.5714285714E+00   -3.5650623886E+00   -3.5587188612E+00   -3.5523978686E+00
   -3.5460992908E+00   -3.5398230088E+00   -3.5335689046E+00   -3.5273368607E+00
   -3.5211267606E+00   -3.5149384886E+00   -3.5087719298E+00   -3.5026269702E+00
   -3.4965034965E+00   -3.4904013962E+00   -3.4843205575E+00   -3.4782608696E+00
   -3.4722222222E+00   -3.4662045061E+00   -3.4602076125E+00   -3.4542314335E+00
   -3.4482758621E+00   -3.4423407917E+00   -3.4364261168E+00   -3.4305317324E+00
   -3.4246575342E+00   -3.4188034188E+00   -3.4129692833E+00   -3.4071550256E+00
   -3.4013605442E+00   -3.3955857385E+00   -3.3898305085E+00   -3.3840947547E+00
   -3.3783783784E+00   -3.3726812816E+00   -3.3670033670E+00   -3.3613445378E+00
   -3.3557046980E+00   -3.3500837521E+00   -3.3444816054E+00   -3.3388981636E+00
   -3.3333333333E+00   -3.3277870216E+00   -3.3222591362E+00   -3.3167495854E+00
   -3.3112582781E+00   -3.3057851240E+00   -3.3003300330E+00   -3.2948929160E+00
   -3.2894736842E+00   -3.2840722496E+00   -3.2786885246E+00   -3.2733224223E+00
   -3.2679738562E+00   -3.2626427406E+00   -3.2573289902E+00   -3.2520325203E+00
   -3.2467532468E+00   -3.2414910859E+00   -3.2362459547E+00   -3.2310177706E+00
   -3.2258064516E+00   -3.2206119163E+00   -3.2154340836E+00   -3.2102728732E+00
   -3.2051282051E+00   -3.2000000000E+00   -3.1948881789E+00   -3.1897926635E+00
   -3.1847133758E+00   -3.1796502385E+00   -3.1746031746E+00   -3.1695721078E+00
   -3.1645569620E+00   -3.1595576619E+00   -3.1545741325E+00   -3.1496062992E+00
   -3.1446540881E+00   -3.1397174254E+00   -3.1347962382E+00   -3.1298904538E+00
   -3.1250000000E+00   -3.1201248050E+00   -3.1152647975E+00   -3.1104199067E+00
   -3.1055900621E+00   -3.1007751938E+00   -3.0959752322E+00   -3.0911901082E+00
   -3.0864197531E+00   -3.0816640986E+00   -3.0769230769E+00   -3.0721966206E+00
   -3.0674846626E+00   -3.0627871363E+00   -3.0581039755E+00   -3.0534351145E+00
   -3.0487804878E+00   -3.0441400304E+00   -3.0395136778E+00   -3.0349013657E+00
   -3.0303030303E+00   -3.0257186082E+00   -3.0211480363E+00   -3.0165912519E+00
   -3.0120481928E+00   -3.0075187970E+00   -3.0030030030E+00   -2.9985007496E+00
   -2.9940119760E+00   -2.9895366218E+00   -2.9850746269E+00   -2.9806259314E+00
   -2.9761904762E+00   -2.9717682021E+00   -2.9673590504E+00   -2.9629629630E+00
   -2.9585798817E+00   -2.9542097489E+00   -2.9498525074E+00   -2.9455081001E+00
   -2.9411764706E+00   -2.9368575624E+00   -2.9325513196E+00   -2.9282576867E+00
   -2.9239766082E+00   -2.9197080292E+00   -2.9154518950E+00   -2.9112081514E+00
   -2.9069767442E+00   -2.9027576197E+00   -2.8985507246E+00   -2.8943560058E+00
   -2.8901734104E+00   -2.8860028860E+00   -2.8818443804E+00   -2.8776978417E+00
   -2.8735632184E+00   -2.8694404591E+00   -2.8653295129E+00   -2.8612303290E+00
   -2.8571428571E+00   -2.8530670471E+00   -2.8490028490E+00   -2.8449502134E+00
   -2.8409090909E+00   -2.8368794326E+00   -2.8328611898E+00   -2.8288543140E+00
   -2.8248587571E+00   -2.8208744711E+00   -2.8169014085E+00   -2.8129395218E+00
   -2.8089887640E+00   -2.8050490884E+00   -2.8011204482E+00   -2.7972027972E+00
   -2.7932960894E+00   -2.7894002789E+00   -2.7855153203E+00   -2.7816411683E+00
   -2.7777777778E+00   -2.7739251040E+00   -2.7700831025E+00   -2.7662517289E+00
   -2.7624309392E+00   -2.7586206897E+00   -2.7548209366E+00   -2.7510316369E+00
   -2.7472527473E+00   -2.7434842250E+00   -2.7397260274E+00   -2.7359781122E+00
   -2.7322404372E+00   -2.7285129604E+00   -2.7247956403E+00   -2.7210884354E+00
   -2.7173913043E+00   -2.7137042062E+00   -2.7100271003E+00   -2.7063599459E+00
   -2.7027027027E+00   -2.6990553306E+00   -2.6954177898E+00   -2.6917900404E+00
   -2.6881720430E+00   -2.6845637584E+00   -2.6809651475E+00   -2.6773761714E+00
   -2.6737967914E+00   -2.6702269693E+00   -2.6666666667E+00   -2.6631158455E+00
   -2.6595744681E+00   -2.6560424967E+00   -2.6525198939E+00   -2.6490066225E+00
   -2.6455026455E+00   -2.6420079260E+00   -2.6385224274E+00   -2.6350461133E+00
   -2.6315789474E+00   -2.6281208936E+00   -2.6246719160E+00   -2.6212319790E+00
   -2.6178010471E+00   -2.6143790850E+00   -2.6109660574E+00   -2.6075619296E+00
   -2.6041666667E+00   -2.6007802341E+00   -2.5974025974E+00   -2.5940337224E+00
   -2.5906735751E+00   -2.5873221216E+00   -2.5839793282E+00   -2.5806451613E+00
   -2.5773195876E+00   -2.5740025740E+00   -2.5706940874E+00   -2.5673940950E+00
   -2.5641025641E+00   -2.5608194622E+00   -2.5575447570E+00   -2.5542784163E+00
   -2.5510204082E+00   -2.5477707006E+00   -2.5445292621E+00   -2.5412960610E+00
   -2.5380710660E+00   -2.5348542459E+00   -2.5316455696E+00   -2.5284450063E+00
   -2.5252525253E+00   -2.5220680958E+00   -2.5188916877E+00   -2.5157232704E+00
   -2.5125628141E+00   -2.5094102886E+00   -2.5062656642E+00   -2.5031289111E+00
   -2.5000000000E+00   -2.4968789014E+00   -2.4937655860E+00   -2.4906600249E+00
   -2.4875621891E+00   -2.4844720497E+00   -2.4813895782E+00   -2.4783147460E+00
   -2.4752475248E+00   -2.4721878863E+00   -2.4691358025E+00   -2.4660912454E+00
   -2.4630541872E+00   -2.4600246002E+00   -2.4570024570E+00   -2.4539877301E+00
   -2.4509803922E+00   -2.4479804162E+00   -2.4449877751E+00   -2.4420024420E+00
   -2.4390243902E+00   -2.4360535932E+00   -2.4330900243E+00   -2.4301336574E+00
   -2.4271844660E+00   -2.4242424242E+00   -2.4213075061E+00   -2.4183796856E+00
   -2.4154589372E+00   -2.4125452352E+00   -2.4096385542E+00   -2.4067388688E+00
   -2.4038461538E+00   -2.4009603842E+00   -2.3980815348E+00   -2.3952095808E+00
   -2.3923444976E+00   -2.3894862605E+00   -2.3866348449E+00   -2.3837902265E+00
   -2.3809523810E+00   -2.3781212842E+00   -2.3752969121E+00   -2.3724792408E+00
   -2.3696682464E+00   -2.3668639053E+00   -2.3640661939E+00   -2.3612750885E+00
   -2.3584905660E+00   -2.3557126031E+00   -2.3529411765E+00   -2.3501762632E+00
   -2.3474178404E+00   -2.3446658851E+00   -2.3419203747E+00   -2.3391812865E+00
   -2.3364485981E+00   -2.3337222870E+00   -2.3310023310E+00   -2.3282887078E+00
   -2.3255813953E+00   -2.3228803717E+00   -2.3201856148E+00   -2.3174971031E+00
   -2.3148148148E+00   -2.3121387283E+00   -2.3094688222E+00   -2.3068050750E+00
   -2.3041474654E+00   -2.3014959724E+00   -2.2988505747E+00   -2.2962112514E+00
   -2.2935779817E+00   -2.2909507446E+00   -2.2883295195E+00   -2.2857142857E+00
   -2.2831050228E+00   -2.2805017104E+00   -2.2779043280E+00   -2.2753128555E+00
   -2.2727272727E+00   -2.2701475596E+00   -2.2675736961E+00   -2.2650056625E+00
   -2.2624434389E+00   -2.2598870056E+00   -2.2573363431E+00   -2.2547914318E+00
   -2.2522522523E+00   -2.2497187852E+00   -2.2471910112E+00   -2.2446689113E+00
   -2.2421524664E+00   -2.2396416573E+00   -2.2371364653E+00   -2.2346368715E+00
   -2.2321428571E+00   -2.2296544036E+00   -2.2271714922E+00   -2.2246941046E+00
   -2.2222222222E+00   -2.2197558269E+00   -2.2172949002E+00   -2.2148394241E+00
   -2.2123893805E+00   -2.2099447514E+00   -2.2075055188E+00   -2.2050716648E+00
   -2.2026431718E+00   -2.2002200220E+00   -2.1978021978E+00   -2.1953896817E+00
   -2.1929824561E+00   -2.1905805038E+00   -2.1881838074E+00   -2.1857923497E+00
   -2.1834061135E+00   -2.1810250818E+00   -2.1786492375E+00   -2.1762785637E+00
   -2.1739130435E+00   -2.1715526602E+00   -2.1691973970E+00   -2.1668472373E+00
   -2.1645021645E+00   -2.1621621622E+00   -2.1598272138E+00   -2.1574973031E+00
   -2.1551724138E+00   -2.1528525296E+00   -2.1505376344E+00   -2.1482277121E+00
   -2.1459227468E+00   -2.1436227224E+00   -2.1413276231E+00   -2.1390374332E+00
   -2.1367521368E+00   -2.1344717182E+00   -2.1321961620E+00   -2.1299254526E+00
   -2.1276595745E+00   -2.1253985122E+00   -2.1231422505E+00   -2.1208907741E+00
   -2.1186440678E+00   -2.1164021164E+00   -2.1141649049E+00   -2.1119324182E+00
   -2.1097046414E+00   -2.1074815595E+00   -2.1052631579E+00   -2.1030494217E+00
   -2.1008403361E+00   -2.0986358867E+00   -2.0964360587E+00   -2.0942408377E+00
   -2.0920502092E+00   -2.0898641588E+00   -2.0876826722E+00   -2.0855057351E+00
   -2.0833333333E+00   -2.0811654527E+00   -2.0790020790E+00   -2.0768431983E+00
   -2.0746887967E+00   -2.0725388601E+00   -2.0703933747E+00   -2.0682523268E+00
   -2.0661157025E+00   -2.0639834881E+00   -2.0618556701E+00   -2.0597322348E+00
   -2.0576131687E+00   -2.0554984584E+00   -2.0533880903E+00   -2.0512820513E+00
   -2.0491803279E+00   -2.0470829069E+00   -2.0449897751E+00   -2.0429009193E+00
   -2.0408163265E+00   -2.0387359837E+00   -2.0366598778E+00   -2.0345879959E+00
   -2.0325203252E+00   -2.0304568528E+00   -2.0283975659E+00   -2.0263424519E+00
   -2.0242914980E+00   -2.0222446916E+00   -2.0202020202E+00   -2.0181634712E+00
   -2.0161290323E+00   -2.0140986908E+00   -2.0120724346E+00   -2.0100502513E+00
   -2.0080321285E+00   -2.0060180542E+00   -2.0040080160E+00   -2.0020020020E+00
   -2.0000000000E+00   -1.9980019980E+00   -1.9960079840E+00   -1.9940179462E+00
   -1.9920318725E+00   -1.9900497512E+00   -1.9880715706E+00   -1.9860973188E+00
   -1.9841269841E+00   -1.9821605550E+00   -1.9801980198E+00   -1.9782393670E+00
   -1.9762845850E+00   -1.9743336624E+00   -1.9723865878E+00   -1.9704433498E+00
   -1.9685039370E+00   -1.9665683382E+00   -1.9646365422E+00   -1.9627085378E+00
   -1.9607843137E+00   -1.9588638590E+00   -1.9569471624E+00   -1.9550342131E+00
   -1.9531250000E+00   -1.9512195122E+00   -1.9493177388E+00   -1.9474196689E+00
   -1.9455252918E+00   -1.9436345967E+00   -1.9417475728E+00   -1.9398642095E+00
   -1.9379844961E+00   -1.9361084221E+00   -1.9342359768E+00   -1.9323671498E+00
   -1.9305019305E+00   -1.9286403086E+00   -1.9267822736E+00   -1.9249278152E+00
   -1.9230769231E+00   -1.9212295869E+00   -1.9193857965E+00   -1.9175455417E+00
   -1.9157088123E+00   -1.9138755981E+00   -1.9120458891E+00   -1.9102196753E+00
   -1.9083969466E+00   -1.9065776930E+00   -1.9047619048E+00   -1.9029495718E+00
   -1.9011406844E+00   -1.8993352327E+00   -1.8975332068E+00   -1.8957345972E+00
   -1.8939393939E+00   -1.8921475875E+00   -1.8903591682E+00   -1.8885741265E+00
   -1.8867924528E+00   -1.8850141376E+00   -1.8832391714E+00   -1.8814675447E+00
   -1.8796992481E+00   -1.8779342723E+00   -1.8761726079E+00   -1.8744142455E+00
   -1.8726591760E+00   -1.8709073901E+00   -1.8691588785E+00   -1.8674136321E+00
   -1.8656716418E+00   -1.8639328984E+00   -1.8621973929E+00   -1.8604651163E+00
   -1.8587360595E+00   -1.8570102136E+00   -1.8552875696E+00   -1.8535681186E+00
   -1.8518518519E+00   -1.8501387604E+00   -1.8484288355E+00   -1.8467220683E+00
   -1.8450184502E+00   -1.8433179724E+00   -1.8416206262E+00   -1.8399264029E+00
   -1.8382352941E+00   -1.8365472911E+00   -1.8348623853E+00   -1.8331805683E+00
   -1.8315018315E+00   -1.8298261665E+00   -1.8281535649E+00   -1.8264840183E+00
   -1.8248175182E+00   -1.8231540565E+00   -1.8214936248E+00   -1.8198362147E+00
   -1.8181818182E+00   -1.8165304269E+00   -1.8148820327E+00   -1.8132366274E+00
   -1.8115942029E+00   -1.8099547511E+00   -1.8083182640E+00   -1.8066847335E+00
   -1.8050541516E+00   -1.8034265104E+00   -1.8018018018E+00   -1.8001800180E+00
   -1.7985611511E+00   -1.7969451932E+00   -1.7953321364E+00   -1.7937219731E+00
   -1.7921146953E+00   -1.7905102954E+00   -1.7889087657E+00   -1.7873100983E+00
   -1.7857142857E+00   -1.7841213202E+00   -1.7825311943E+00   -1.7809439003E+00
   -1.7793594306E+00   -1.7777777778E+00   -1.7761989343E+00   -1.7746228926E+00
   -1.7730496454E+00   -1.7714791851E+00   -1.7699115044E+00   -1.7683465959E+00
   -1.7667844523E+00   -1.7652250662E+00   -1.7636684303E+00   -1.7621145374E+00
   -1.7605633803E+00   -1.7590149516E+00   -1.7574692443E+00   -1.7559262511E+00
   -1.7543859649E+00   -1.7528483786E+00   -1.7513134851E+00   -1.7497812773E+00
   -1.7482517483E+00   -1.7467248908E+00   -1.7452006981E+00   -1.7436791630E+00
   -1.7421602787E+00   -1.7406440383E+00   -1.7391304348E+00   -1.7376194613E+00
   -1.7361111111E+00   -1.7346053773E+00   -1.7331022530E+00   -1.7316017316E+00
   -1.7301038062E+00   -1.7286084702E+00   -1.7271157168E+00   -1.7256255393E+00
   -1.7241379310E+00   -1.7226528854E+00   -1.7211703959E+00   -1.7196904557E+00
   -1.7182130584E+00   -1.7167381974E+00   -1.7152658662E+00   -1.7137960583E+00
   -1.7123287671E+00   -1.7108639863E+00   -1.7094017094E+00   -1.7079419300E+00
   -1.7064846416E+00   -1.7050298380E+00   -1.7035775128E+00   -1.7021276596E+00
   -1.7006802721E+00   -1.6992353441E+00   -1.6977928693E+00   -1.6963528414E+00
   -1.6949152542E+00   -1.6934801016E+00   -1.6920473773E+00   -1.6906170752E+00
   -1.6891891892E+00   -1.6877637131E+00   -1.6863406408E+00   -1.6849199663E+00
   -1.6835016835E+00   -1.6820857864E+00   -1.6806722689E+00   -1.6792611251E+00
   -1.6778523490E+00   -1.6764459346E+00   -1.6750418760E+00   -1.6736401674E+00
   -1.6722408027E+00   -1.6708437761E+00   -1.6694490818E+00   -1.6680567139E+00
   -1.6666666667E+00   -1.6652789342E+00   -1.6638935108E+00   -1.6625103907E+00
   -1.6611295681E+00   -1.6597510373E+00   -1.6583747927E+00   -1.6570008285E+00
   -1.6556291391E+00   -1.6542597188E+00   -1.6528925620E+00   -1.6515276631E+00
   -1.6501650165E+00   -1.6488046167E+00   -1.6474464580E+00   -1.6460905350E+00
   -1.6447368421E+00   -1.6433853739E+00   -1.6420361248E+00   -1.6406890894E+00
   -1.6393442623E+00   -1.6380016380E+00   -1.6366612111E+00   -1.6353229763E+00
   -1.6339869281E+00   -1.6326530612E+00   -1.6313213703E+00   -1.6299918500E+00
   -1.6286644951E+00   -1.6273393002E+00   -1.6260162602E+00   -1.6246953696E+00
   -1.6233766234E+00   -1.6220600162E+00   -1.6207455429E+00   -1.6194331984E+00
   -1.6181229773E+00   -1.6168148747E+00   -1.6155088853E+00   -1.6142050040E+00
   -1.6129032258E+00   -1.6116035455E+00   -1.6103059581E+00   -1.6090104586E+00
   -1.6077170418E+00   -1.6064257028E+00   -1.6051364366E+00   -1.6038492382E+00
   -1.6025641026E+00   -1.6012810248E+00   -1.6000000000E+00   -1.5987210232E+00
   -1.5974440895E+00   -1.5961691939E+00   -1.5948963317E+00   -1.5936254980E+00
   -1.5923566879E+00   -1.5910898966E+00   -1.5898251192E+00   -1.5885623511E+00
   -1.5873015873E+00   -1.5860428232E+00   -1.5847860539E+00   -1.5835312747E+00
   -1.5822784810E+00   -1.5810276680E+00   -1.5797788310E+00   -1.5785319653E+00
   -1.5772870662E+00   -1.5760441292E+00   -1.5748031496E+00   -1.5735641227E+00
   -1.5723270440E+00   -1.5710919089E+00   -1.5698587127E+00   -1.5686274510E+00
   -1.5673981191E+00   -1.5661707126E+00   -1.5649452269E+00   -1.5637216575E+00
   -1.5625000000E+00   -1.5612802498E+00   -1.5600624025E+00   -1.5588464536E+00
   -1.5576323988E+00   -1.5564202335E+00   -1.5552099533E+00   -1.5540015540E+00
   -1.5527950311E+00   -1.5515903801E+00   -1.5503875969E+00   -1.5491866770E+00
   -1.5479876161E+00   -1.5467904099E+00   -1.5455950541E+00   -1.5444015444E+00
   -1.5432098765E+00   -1.5420200463E+00   -1.5408320493E+00   -1.5396458814E+00
   -1.5384615385E+00   -1.5372790161E+00   -1.5360983103E+00   -1.5349194167E+00
   -1.5337423313E+00   -1.5325670498E+00   -1.5313935681E+00   -1.5302218822E+00
   -1.5290519878E+00   -1.5278838808E+00   -1.5267175573E+00   -1.5255530130E+00
   -1.5243902439E+00   -1.5232292460E+00   -1.5220700152E+00   -1.5209125475E+00
   -1.5197568389E+00   -1.5186028853E+00   -1.5174506829E+00   -1.5163002274E+00
   -1.5151515152E+00   -1.5140045420E+00   -1.5128593041E+00   -1.5117157974E+00
   -1.5105740181E+00   -1.5094339623E+00   -1.5082956259E+00   -1.5071590053E+00
   -1.5060240964E+00   -1.5048908954E+00   -1.5037593985E+00   -1.5026296018E+00
   -1.5015015015E+00   -1.5003750938E+00   -1.4992503748E+00   -1.4981273408E+00
   -1.4970059880E+00   -1.4958863126E+00   -1.4947683109E+00   -1.4936519791E+00
   -1.4925373134E+00   -1.4914243102E+00   -1.4903129657E+00   -1.4892032762E+00
   -1.4880952381E+00   -1.4869888476E+00   -1.4858841010E+00   -1.4847809948E+00
   -1.4836795252E+00   -1.4825796887E+00   -1.4814814815E+00   -1.4803849001E+00
   -1.4792899408E+00   -1.4781966001E+00   -1.4771048744E+00   -1.4760147601E+00
   -1.4749262537E+00   -1.4738393515E+00   -1.4727540501E+00   -1.4716703458E+00
   -1.4705882353E+00   -1.4695077149E+00   -1.4684287812E+00   -1.4673514307E+00
   -1.4662756598E+00   -1.4652014652E+00   -1.4641288433E+00   -1.4630577908E+00
   -1.4619883041E+00   -1.4609203798E+00   -1.4598540146E+00   -1.4587892050E+00
   -1.4577259475E+00   -1.4566642389E+00   -1.4556040757E+00   -1.4545454545E+00
   -1.4534883721E+00   -1.4524328250E+00   -1.4513788099E+00   -1.4503263234E+00
   -1.4492753623E+00   -1.4482259232E+00   -1.4471780029E+00   -1.4461315980E+00
   -1.4450867052E+00   -1.4440433213E+00   -1.4430014430E+00   -1.4419610671E+00
   -1.4409221902E+00   -1.4398848092E+00   -1.4388489209E+00   -1.4378145219E+00
   -1.4367816092E+00   -1.4357501795E+00   -1.4347202296E+00   -1.4336917563E+00
   -1.4326647564E+00   -1.4316392269E+00   -1.4306151645E+00   -1.4295925661E+00
   -1.4285714286E+00   -1.4275517488E+00   -1.4265335235E+00   -1.4255167498E+00
   -1.4245014245E+00   -1.4234875445E+00   -1.4224751067E+00   -1.4214641080E+00
   -1.4204545455E+00   -1.4194464159E+00   -1.4184397163E+00   -1.4174344437E+00
   -1.4164305949E+00   -1.4154281670E+00   -1.4144271570E+00   -1.4134275618E+00
   -1.4124293785E+00   -1.4114326041E+00   -1.4104372355E+00   -1.4094432699E+00
   -1.4084507042E+00   -1.4074595355E+00   -1.4064697609E+00   -1.4054813774E+00
   -1.4044943820E+00   -1.4035087719E+00   -1.4025245442E+00   -1.4015416959E+00
   -1.4005602241E+00   -1.3995801260E+00   -1.3986013986E+00   -1.3976240391E+00
   -1.3966480447E+00   -1.3956734124E+00   -1.3947001395E+00   -1.3937282230E+00
   -1.3927576602E+00   -1.3917884482E+00   -1.3908205841E+00   -1.3898540653E+00
   -1.3888888889E+00   -1.3879250520E+00   -1.3869625520E+00   -1.3860013860E+00
   -1.3850415512E+00   -1.3840830450E+00   -1.3831258645E+00   -1.3821700069E+00
   -1.3812154696E+00   -1.3802622498E+00   -1.3793103448E+00   -1.3783597519E+00
   -1.3774104683E+00   -1.3764624914E+00   -1.3755158184E+00   -1.3745704467E+00
   -1.3736263736E+00   -1.3726835964E+00   -1.3717421125E+00   -1.3708019191E+00
   -1.3698630137E+00   -1.3689253936E+00   -1.3679890561E+00   -1.3670539986E+00
   -1.3661202186E+00   -1.3651877133E+00   -1.3642564802E+00   -1.3633265167E+00
   -1.3623978202E+00   -1.3614703880E+00   -1.3605442177E+00   -1.3596193066E+00
   -1.3586956522E+00   -1.3577732519E+00   -1.3568521031E+00   -1.3559322034E+00
   -1.3550135501E+00   -1.3540961408E+00   -1.3531799729E+00   -1.3522650439E+00
   -1.3513513514E+00   -1.3504388926E+00   -1.3495276653E+00   -1.3486176669E+00
   -1.3477088949E+00   -1.3468013468E+00   -1.3458950202E+00   -1.3449899126E+00
   -1.3440860215E+00   -1.3431833445E+00   -1.3422818792E+00   -1.3413816231E+00
   -1.3404825737E+00   -1.3395847287E+00   -1.3386880857E+00   -1.3377926421E+00
   -1.3368983957E+00   -1.3360053440E+00   -1.3351134846E+00   -1.3342228152E+00
   -1.3333333333E+00   -1.3324450366E+00   -1.3315579228E+00   -1.3306719894E+00
   -1.3297872340E+00   -1.3289036545E+00   -1.3280212483E+00   -1.3271400133E+00
   -1.3262599469E+00   -1.3253810471E+00   -1.3245033113E+00   -1.3236267373E+00
   -1.3227513228E+00   -1.3218770654E+00   -1.3210039630E+00   -1.3201320132E+00
   -1.3192612137E+00   -1.3183915623E+00   -1.3175230567E+00   -1.3166556945E+00
   -1.3157894737E+00   -1.3149243918E+00   -1.3140604468E+00   -1.3131976362E+00
   -1.3123359580E+00   -1.3114754098E+00   -1.3106159895E+00   -1.3097576948E+00
   -1.3089005236E+00   -1.3080444735E+00   -1.3071895425E+00   -1.3063357283E+00
   -1.3054830287E+00   -1.3046314416E+00   -1.3037809648E+00   -1.3029315961E+00
   -1.3020833333E+00   -1.3012361744E+00   -1.3003901170E+00   -1.2995451592E+00
   -1.2987012987E+00   -1.2978585334E+00   -1.2970168612E+00   -1.2961762800E+00
   -1.2953367876E+00   -1.2944983819E+00   -1.2936610608E+00   -1.2928248222E+00
   -1.2919896641E+00   -1.2911555842E+00   -1.2903225806E+00   -1.2894906512E+00
   -1.2886597938E+00   -1.2878300064E+00   -1.2870012870E+00   -1.2861736334E+00
   -1.2853470437E+00   -1.2845215157E+00   -1.2836970475E+00   -1.2828736369E+00
   -1.2820512821E+00   -1.2812299808E+00   -1.2804097311E+00   -1.2795905310E+00
   -1.2787723785E+00   -1.2779552716E+00   -1.2771392082E+00   -1.2763241863E+00
   -1.2755102041E+00   -1.2746972594E+00   -1.2738853503E+00   -1.2730744749E+00
   -1.2722646310E+00   -1.2714558169E+00   -1.2706480305E+00   -1.2698412698E+00
   -1.2690355330E+00   -1.2682308180E+00   -1.2674271229E+00   -1.2666244459E+00
   -1.2658227848E+00   -1.2650221379E+00   -1.2642225032E+00   -1.2634238787E+00
   -1.2626262626E+00   -1.2618296530E+00   -1.2610340479E+00   -1.2602394455E+00
   -1.2594458438E+00   -1.2586532410E+00   -1.2578616352E+00   -1.2570710245E+00
   -1.2562814070E+00   -1.2554927809E+00   -1.2547051443E+00   -1.2539184953E+00
   -1.2531328321E+00   -1.2523481528E+00   -1.2515644556E+00   -1.2507817386E+00
   -1.2500000000E+00   -1.2492192380E+00   -1.2484394507E+00   -1.2476606363E+00
   -1.2468827930E+00   -1.2461059190E+00   -1.2453300125E+00   -1.2445550716E+00
   -1.2437810945E+00   -1.2430080796E+00   -1.2422360248E+00   -1.2414649286E+00
   -1.2406947891E+00   -1.2399256045E+00   -1.2391573730E+00   -1.2383900929E+00
   -1.2376237624E+00   -1.2368583797E+00   -1.2360939431E+00   -1.2353304509E+00
   -1.2345679012E+00   -1.2338062924E+00   -1.2330456227E+00   -1.2322858903E+00
   -1.2315270936E+00   -1.2307692308E+00   -1.2300123001E+00   -1.2292562999E+00
   -1.2285012285E+00   -1.2277470841E+00   -1.2269938650E+00   -1.2262415696E+00
   -1.2254901961E+00   -1.2247397428E+00   -1.2239902081E+00   -1.2232415902E+00
   -1.2224938875E+00   -1.2217470984E+00   -1.2210012210E+00   -1.2202562538E+00
   -1.2195121951E+00   -1.2187690433E+00   -1.2180267966E+00   -1.2172854534E+00
   -1.2165450122E+00   -1.2158054711E+00   -1.2150668287E+00   -1.2143290832E+00
   -1.2135922330E+00   -1.2128562765E+00   -1.2121212121E+00   -1.2113870382E+00
   -1.2106537530E+00   -1.2099213551E+00   -1.2091898428E+00   -1.2084592145E+00
   -1.2077294686E+00   -1.2070006035E+00   -1.2062726176E+00   -1.2055455093E+00
   -1.2048192771E+00   -1.2040939193E+00   -1.2033694344E+00   -1.2026458208E+00
   -1.2019230769E+00   -1.2012012012E+00   -1.2004801921E+00   -1.1997600480E+00
   -1.1990407674E+00   -1.1983223487E+00   -1.1976047904E+00   -1.1968880910E+00
   -1.1961722488E+00   -1.1954572624E+00   -1.1947431302E+00   -1.1940298507E+00
   -1.1933174224E+00   -1.1926058438E+00   -1.1918951132E+00   -1.1911852293E+00
   -1.1904761905E+00   -1.1897679952E+00   -1.1890606421E+00   -1.1883541295E+00
   -1.1876484561E+00   -1.1869436202E+00   -1.1862396204E+00   -1.1855364552E+00
   -1.1848341232E+00   -1.1841326229E+00   -1.1834319527E+00   -1.1827321112E+00
   -1.1820330969E+00   -1.1813349084E+00   -1.1806375443E+00   -1.1799410029E+00
   -1.1792452830E+00   -1.1785503830E+00   -1.1778563015E+00   -1.1771630371E+00
   -1.1764705882E+00   -1.1757789536E+00   -1.1750881316E+00   -1.1743981210E+00
   -1.1737089202E+00   -1.1730205279E+00   -1.1723329426E+00   -1.1716461629E+00
   -1.1709601874E+00   -1.1702750146E+00   -1.1695906433E+00   -1.1689070719E+00
   -1.1682242991E+00   -1.1675423234E+00   -1.1668611435E+00   -1.1661807580E+00
   -1.1655011655E+00   -1.1648223646E+00   -1.1641443539E+00   -1.1634671321E+00
   -1.1627906977E+00   -1.1621150494E+00   -1.1614401858E+00   -1.1607661056E+00
   -1.1600928074E+00   -1.1594202899E+00   -1.1587485516E+00   -1.1580775912E+00
   -1.1574074074E+00   -1.1567379988E+00   -1.1560693642E+00   -1.1554015020E+00
   -1.1547344111E+00   -1.1540680900E+00   -1.1534025375E+00   -1.1527377522E+00
   -1.1520737327E+00   -1.1514104778E+00   -1.1507479862E+00   -1.1500862565E+00
   -1.1494252874E+00   -1.1487650775E+00   -1.1481056257E+00   -1.1474469306E+00
   -1.1467889908E+00   -1.1461318052E+00   -1.1454753723E+00   -1.1448196909E+00
   -1.1441647597E+00   -1.1435105775E+00   -1.1428571429E+00   -1.1422044546E+00
   -1.1415525114E+00   -1.1409013120E+00   -1.1402508552E+00   -1.1396011396E+00
   -1.1389521640E+00   -1.1383039271E+00   -1.1376564278E+00   -1.1370096646E+00
   -1.1363636364E+00   -1.1357183419E+00   -1.1350737798E+00   -1.1344299490E+00
   -1.1337868481E+00   -1.1331444759E+00   -1.1325028313E+00   -1.1318619128E+00
   -1.1312217195E+00   -1.1305822499E+00   -1.1299435028E+00   -1.1293054771E+00
   -1.1286681716E+00   -1.1280315849E+00   -1.1273957159E+00   -1.1267605634E+00
   -1.1261261261E+00   -1.1254924029E+00   -1.1248593926E+00   -1.1242270939E+00
   -1.1235955056E+00   -1.1229646266E+00   -1.1223344557E+00   -1.1217049916E+00
   -1.1210762332E+00   -1.1204481793E+00   -1.1198208287E+00   -1.1191941802E+00
   -1.1185682327E+00   -1.1179429849E+00   -1.1173184358E+00   -1.1166945840E+00
   -1.1160714286E+00   -1.1154489682E+00   -1.1148272018E+00   -1.1142061281E+00
   -1.1135857461E+00   -1.1129660545E+00   -1.1123470523E+00   -1.1117287382E+00
   -1.1111111111E+00   -1.1104941699E+00   -1.1098779134E+00   -1.1092623405E+00
   -1.1086474501E+00   -1.1080332410E+00   -1.1074197121E+00   -1.1068068622E+00
   -1.1061946903E+00   -1.1055831951E+00   -1.1049723757E+00   -1.1043622308E+00
   -1.1037527594E+00   -1.1031439603E+00   -1.1025358324E+00   -1.1019283747E+00
   -1.1013215859E+00   -1.1007154651E+00   -1.1001100110E+00   -1.0995052226E+00
   -1.0989010989E+00   -1.0982976387E+00   -1.0976948408E+00   -1.0970927043E+00
   -1.0964912281E+00   -1.0958904110E+00   -1.0952902519E+00   -1.0946907499E+00
   -1.0940919037E+00   -1.0934937124E+00   -1.0928961749E+00   -1.0922992900E+00
   -1.0917030568E+00   -1.0911074741E+00   -1.0905125409E+00   -1.0899182561E+00
   -1.0893246187E+00   -1.0887316277E+00   -1.0881392818E+00   -1.0875475802E+00
   -1.0869565217E+00   -1.0863661054E+00   -1.0857763301E+00   -1.0851871948E+00
   -1.0845986985E+00   -1.0840108401E+00   -1.0834236186E+00   -1.0828370330E+00
   -1.0822510823E+00   -1.0816657653E+00   -1.0810810811E+00   -1.0804970286E+00
   -1.0799136069E+00   -1.0793308149E+00   -1.0787486516E+00   -1.0781671159E+00
   -1.0775862069E+00   -1.0770059235E+00   -1.0764262648E+00   -1.0758472297E+00
   -1.0752688172E+00   -1.0746910263E+00   -1.0741138561E+00   -1.0735373054E+00
   -1.0729613734E+00   -1.0723860590E+00   -1.0718113612E+00   -1.0712372791E+00
   -1.0706638116E+00   -1.0700909577E+00   -1.0695187166E+00   -1.0689470871E+00
   -1.0683760684E+00   -1.0678056594E+00   -1.0672358591E+00   -1.0666666667E+00
   -1.0660980810E+00   -1.0655301012E+00   -1.0649627263E+00   -1.0643959553E+00
   -1.0638297872E+00   -1.0632642212E+00   -1.0626992561E+00   -1.0621348911E+00
   -1.0615711253E+00   -1.0610079576E+00   -1.0604453871E+00   -1.0598834128E+00
   -1.0593220339E+00   -1.0587612493E+00   -1.0582010582E+00   -1.0576414595E+00
   -1.0570824524E+00   -1.0565240359E+00   -1.0559662091E+00   -1.0554089710E+00
   -1.0548523207E+00   -1.0542962572E+00   -1.0537407798E+00   -1.0531858873E+00
   -1.0526315789E+00   -1.0520778538E+00   -1.0515247108E+00   -1.0509721492E+00
   -1.0504201681E+00   -1.0498687664E+00   -1.0493179433E+00   -1.0487676980E+00
   -1.0482180294E+00   -1.0476689366E+00   -1.0471204188E+00   -1.0465724751E+00
   -1.0460251046E+00   -1.0454783063E+00   -1.0449320794E+00   -1.0443864230E+00
   -1.0438413361E+00   -1.0432968179E+00   -1.0427528676E+00   -1.0422094841E+00
   -1.0416666667E+00   -1.0411244144E+00   -1.0405827263E+00   -1.0400416017E+00
   -1.0395010395E+00   -1.0389610390E+00   -1.0384215992E+00   -1.0378827193E+00
   -1.0373443983E+00   -1.0368066356E+00   -1.0362694301E+00   -1.0357327809E+00
   -1.0351966874E+00   -1.0346611485E+00   -1.0341261634E+00   -1.0335917313E+00
   -1.0330578512E+00   -1.0325245225E+00   -1.0319917441E+00   -1.0314595152E+00
  </PP_LOCAL>
 <PP_NONLOCAL>
   <PP_BETA.1
       type="real"
       size="1940"
       columns="4"
       index="1"
       angular_momentum="0"
       cutoff_radius_index=" 216"
       cutoff_radius="    2.1500000000E+00" >
    1.6850687512E-11    2.3560689619E-02    4.7127350059E-02    7.0705849287E-02
    9.4301850223E-02    1.1792070984E-01    1.4156738023E-01    1.6524631219E-01
    1.8896136204E-01    2.1271570222E-01    2.3651173616E-01    2.6035101808E-01
    2.8423417817E-01    3.0816085358E-01    3.3212962574E-01    3.5613796428E-01
    3.8018217809E-01    4.0425737353E-01    4.2835742038E-01    4.5247492547E-01
    4.7660121424E-01    5.0072632038E-01    5.2483898351E-01    5.4892665497E-01
    5.7297551164E-01    5.9697047761E-01    6.2089525372E-01    6.4473235458E-01
    6.6846315293E-01    6.9206793098E-01    7.1552593844E-01    7.3881545682E-01
    7.6191386957E-01    7.8479773760E-01    8.0744287977E-01    8.2982445768E-01
    8.5191706439E-01    8.7369481636E-01    8.9513144808E-01    9.1620040886E-01
    9.3687496108E-01    9.5712827934E-01    9.7693354993E-01    9.9626406997E-01
    1.0150933456E+00    1.0333951889E+00    1.0511438124E+00    1.0683139214E+00
    1.0848808031E+00    1.1008204117E+00    1.1161094505E+00    1.1307254484E+00
    1.1446468325E+00    1.1578529947E+00    1.1703243538E+00    1.1820424112E+00
    1.1929898008E+00    1.2031503333E+00    1.2125090337E+00    1.2210521731E+00
    1.2287672940E+00    1.2356432295E+00    1.2416701166E+00    1.2468394030E+00
    1.2511438491E+00    1.2545775232E+00    1.2571357927E+00    1.2588153092E+00
    1.2596139899E+00    1.2595309941E+00    1.2585666958E+00    1.2567226534E+00
    1.2540015759E+00    1.2504072867E+00    1.2459446850E+00    1.2406197059E+00
    1.2344392793E+00    1.2274112878E+00    1.2195445243E+00    1.2108486500E+00
    1.2013341528E+00    1.1910123065E+00    1.1798951312E+00    1.1679953556E+00
    1.1553263806E+00    1.1419022456E+00    1.1277375957E+00    1.1128476527E+00
    1.0972481872E+00    1.0809554933E+00    1.0639863651E+00    1.0463580754E+00
    1.0280883557E+00    1.0091953770E+00    9.8969773103E-01    9.6961441212E-01
    9.4896479692E-01    9.2776862284E-01    9.0604596314E-01    8.8381719753E-01
    8.6110297677E-01    8.3792417938E-01    8.1430185840E-01    7.9025717578E-01
    7.6581132156E-01    7.4098541452E-01    7.1580038069E-01    6.9027680513E-01
    6.6443475197E-01    6.3829354677E-01    6.1187151428E-01    5.8518566365E-01
    5.5825131165E-01    5.3108163343E-01    5.0368712844E-01    4.7607498756E-01
    4.4824834617E-01    4.2020540604E-01    3.9193840855E-01    3.6343244157E-01
    3.3466406524E-01    3.0559974704E-01    2.7619410888E-01    2.4638800961E-01
    2.1610652330E-01    1.8525693386E-01    1.5372696546E-01    1.2138362543E-01
    8.8073183016E-02    5.3605969849E-02    1.9101117250E-02   -1.1670807533E-02
   -3.9665764686E-02   -6.5823838227E-02   -9.0649707171E-02   -1.1432579897E-01
   -1.3681514267E-01   -1.5795216130E-01   -1.7751829019E-01   -1.9530054888E-01
   -2.1113252271E-01   -2.2491853045E-01   -2.3664291044E-01   -2.4636721675E-01
   -2.5421874438E-01   -2.6035841306E-01   -2.6491598608E-01   -2.6801321671E-01
   -2.6977193170E-01   -2.7030869257E-01   -2.6973160140E-01   -2.6813877248E-01
   -2.6561808533E-01   -2.6224783400E-01   -2.5809792297E-01   -2.5323131749E-01
   -2.4770552436E-01   -2.4157394765E-01   -2.3488702618E-01   -2.2769311222E-01
   -2.2003909131E-01   -2.1197077141E-01   -2.0353308671E-01   -1.9477016860E-01
   -1.8572533568E-01   -1.7644104859E-01   -1.6695886531E-01   -1.5731942118E-01
   -1.4756244525E-01   -1.3772681376E-01   -1.2785063032E-01   -1.1797131386E-01
   -1.0812566709E-01   -9.8349891214E-02   -8.8679519105E-02   -7.9148458815E-02
   -6.9801146174E-02   -6.0727597170E-02   -5.1995871650E-02   -4.3662661943E-02
   -3.5784634261E-02   -2.8411890633E-02   -2.1583829833E-02   -1.5344125926E-02
   -9.7348694642E-03   -4.7949979491E-03   -5.6013961557E-04    2.9375885779E-03
    5.6697519759E-03    7.6117422414E-03    8.7428987461E-03    9.0466109441E-03
    8.5104043656E-03    7.1260118453E-03    4.8838036214E-03    1.7235750899E-03
   -5.2268653639E-05   -5.1757565750E-06    0.0000000000E+00    0.0000000000E+00
    0.0000000000E+00    0.0000000000E+00    0.0000000000E+00    0.0000000000E+00
    0.0000000000E+00    0.0000000000E+00    0.0000000000E+00    0.0000000000E+00
    0.0000000000E+00    0.0000000000E+00    0.0000000000E+00    0.0000000000E+00
    0.0000000000E+00    0.0000000000E+00    0.0000000000E+00    0.0000000000E+00
 0. 0. 0. 0.
 0. 0. 0. 0.
 0. 0. 0. 0.
 0. 0. 0. 0.
 0. 0. 0. 0.
 0. 0. 0. 0.
 0. 0. 0. 0.
 0. 0. 0. 0.
 0. 0. 0. 0.
 0. 0. 0. 0.
 0. 0. 0. 0.
 0. 0. 0. 0.
 0. 0. 0. 0.
 0. 0. 0. 0.
 0. 0. 0. 0.
 0. 0. 0. 0.
 0. 0. 0. 0.
 0. 0. 0. 0.
 0. 0. 0. 0.
 0. 0. 0. 0.
 0. 0. 0. 0.
 0. 0. 0. 0.
 0. 0. 0. 0.
 0. 0. 0. 0.
 0. 0. 0. 0.
 0. 0. 0. 0.
 0. 0. 0. 0.
 0. 0. 0. 0.
 0. 0. 0. 0.
 0. 0. 0. 0.
 0. 0. 0. 0.
 0. 0. 0. 0.
 0. 0. 0. 0.
 0. 0. 0. 0.
 0. 0. 0. 0.
 0. 0. 0. 0.
 0. 0. 0. 0.
 0. 0. 0. 0.
 0. 0. 0. 0.
 0. 0. 0. 0.
 0. 0. 0. 0.
 0. 0. 0. 0.
 0. 0. 0. 0.
 0. 0. 0. 0.
 0. 0. 0. 0.
 0. 0. 0. 0.
 0. 0. 0. 0.
 0. 0. 0. 0.
 0. 0. 0. 0.
 0. 0. 0. 0.
 0. 0. 0. 0.
 0. 0. 0. 0.
 0. 0. 0. 0.
 0. 0. 0. 0.
 0. 0. 0. 0.
 0. 0. 0. 0.
 0. 0. 0. 0.
 0. 0. 0. 0.
 0. 0. 0. 0.
 0. 0. 0. 0.
 0. 0. 0. 0.
 0. 0. 0. 0.
 0. 0. 0. 0.
 0. 0. 0. 0.
 0. 0. 0. 0.
 0. 0. 0. 0.
 0. 0. 0. 0.
 0. 0. 0. 0.
 0. 0. 0. 0.
 0. 0. 0. 0.
 0. 0. 0. 0.
 0. 0. 0. 0.
 0. 0. 0. 0.
 0. 0. 0. 0.
 0. 0. 0. 0.
 0. 0. 0. 0.
 0. 0. 0. 0.
 0. 0. 0. 0.
 0. 0. 0. 0.
 0. 0. 0. 0.
 0. 0. 0. 0.
 0. 0. 0. 0.
 0. 0. 0. 0.
 0. 0. 0. 0.
 0. 0. 0. 0.
 0. 0. 0. 0.
 0. 0. 0. 0.
 0. 0. 0. 0.
 0. 0. 0. 0.
 0. 0. 0. 0.
 0. 0. 0. 0.
 0. 0. 0. 0.
 0. 0. 0. 0.
 0. 0. 0. 0.
 0. 0. 0. 0.
 0. 0. 0. 0.
 0. 0. 0. 0.
 0. 0. 0. 0.
 0. 0. 0. 0.
 0. 0. 0. 0.
 0. 0. 0. 0.
 0. 0. 0. 0.
 0. 0. 0. 0.
 0. 0. 0. 0.
 0. 0. 0. 0.
 0. 0. 0. 0.
 0. 0. 0. 0.
 0. 0. 0. 0.
 0. 0. 0. 0.
 0. 0. 0. 0.
 0. 0. 0. 0.
 0. 0. 0. 0.
 0. 0. 0. 0.
 0. 0. 0. 0.
 0. 0. 0. 0.
 0. 0. 0. 0.
 0. 0. 0. 0.
 0. 0. 0. 0.
 0. 0. 0. 0.
 0. 0. 0. 0.
 0. 0. 0. 0.
 0. 0. 0. 0.
 0. 0. 0. 0.
 0. 0. 0. 0.
 0. 0. 0. 0.
 0. 0. 0. 0.
 0. 0. 0. 0.
 0. 0. 0. 0.
 0. 0. 0. 0.
 0. 0. 0. 0.
 0. 0. 0. 0.
 0. 0. 0. 0.
 0. 0. 0. 0.
 0. 0. 0. 0.
 0. 0. 0. 0.
 0. 0. 0. 0.
 0. 0. 0. 0.
 0. 0. 0. 0.
 0. 0. 0. 0.
 0. 0. 0. 0.
 0. 0. 0. 0.
 0. 0. 0. 0.
 0. 0. 0. 0.
 0. 0. 0. 0.
 0. 0. 0. 0.
 0. 0. 0. 0.
 0. 0. 0. 0.
 0. 0. 0. 0.
 0. 0. 0. 0.
 0. 0. 0. 0.
 0. 0. 0. 0.
 0. 0. 0. 0.
 0. 0. 0. 0.
 0. 0. 0. 0.
 0. 0. 0. 0.
 0. 0. 0. 0.
 0. 0. 0. 0.
 0. 0. 0. 0.
 0. 0. 0. 0.
 0. 0. 0. 0.
 0. 0. 0. 0.
 0. 0. 0. 0.
 0. 0. 0. 0.
 0. 0. 0. 0.
 0. 0. 0. 0.
 0. 0. 0. 0.
 0. 0. 0. 0.
 0. 0. 0. 0.
 0. 0. 0. 0.
 0. 0. 0. 0.
 0. 0. 0. 0.
 0. 0. 0. 0.
 0. 0. 0. 0.
 0. 0. 0. 0.
 0. 0. 0. 0.
 0. 0. 0. 0.
 0. 0. 0. 0.
 0. 0. 0. 0.
 0. 0. 0. 0.
 0. 0. 0. 0.
 0. 0. 0. 0.
 0. 0. 0. 0.
 0. 0. 0. 0.
 0. 0. 0. 0.
 0. 0. 0. 0.
 0. 0. 0. 0.
 0. 0. 0. 0.
 0. 0. 0. 0.
 0. 0. 0. 0.
 0. 0. 0. 0.
 0. 0. 0. 0.
 0. 0. 0. 0.
 0. 0. 0. 0.
 0. 0. 0. 0.
 0. 0. 0. 0.
 0. 0. 0. 0.
 0. 0. 0. 0.
 0. 0. 0. 0.
 0. 0. 0. 0.
 0. 0. 0. 0.
 0. 0. 0. 0.
 0. 0. 0. 0.
 0. 0. 0. 0.
 0. 0. 0. 0.
 0. 0. 0. 0.
 0. 0. 0. 0.
 0. 0. 0. 0.
 0. 0. 0. 0.
 0. 0. 0. 0.
 0. 0. 0. 0.
 0. 0. 0. 0.
 0. 0. 0. 0.
 0. 0. 0. 0.
 0. 0. 0. 0.
 0. 0. 0. 0.
 0. 0. 0. 0.
 0. 0. 0. 0.
 0. 0. 0. 0.
 0. 0. 0. 0.
 0. 0. 0. 0.
 0. 0. 0. 0.
 0. 0. 0. 0.
 0. 0. 0. 0.
 0. 0. 0. 0.
 0. 0. 0. 0.
 0. 0. 0. 0.
 0. 0. 0. 0.
 0. 0. 0. 0.
 0. 0. 0. 0.
 0. 0. 0. 0.
 0. 0. 0. 0.
 0. 0. 0. 0.
 0. 0. 0. 0.
 0. 0. 0. 0.
 0. 0. 0. 0.
 0. 0. 0. 0.
 0. 0. 0. 0.
 0. 0. 0. 0.
 0. 0. 0. 0.
 0. 0. 0. 0.
 0. 0. 0. 0.
 0. 0. 0. 0.
 0. 0. 0. 0.
 0. 0. 0. 0.
 0. 0. 0. 0.
 0. 0. 0. 0.
 0. 0. 0. 0.
 0. 0. 0. 0.
 0. 0. 0. 0.
 0. 0. 0. 0.
 0. 0. 0. 0.
 0. 0. 0. 0.
 0. 0. 0. 0.
 0. 0. 0. 0.
 0. 0. 0. 0.
 0. 0. 0. 0.
 0. 0. 0. 0.
 0. 0. 0. 0.
 0. 0. 0. 0.
 0. 0. 0. 0.
 0. 0. 0. 0.
 0. 0. 0. 0.
 0. 0. 0. 0.
 0. 0. 0. 0.
 0. 0. 0. 0.
 0. 0. 0. 0.
 0. 0. 0. 0.
 0. 0. 0. 0.
 0. 0. 0. 0.
 0. 0. 0. 0.
 0. 0. 0. 0.
 0. 0. 0. 0.
 0. 0. 0. 0.
 0. 0. 0. 0.
 0. 0. 0. 0.
 0. 0. 0. 0.
 0. 0. 0. 0.
 0. 0. 0. 0.
 0. 0. 0. 0.
 0. 0. 0. 0.
 0. 0. 0. 0.
 0. 0. 0. 0.
 0. 0. 0. 0.
 0. 0. 0. 0.
 0. 0. 0. 0.
 0. 0. 0. 0.
 0. 0. 0. 0.
 0. 0. 0. 0.
 0. 0. 0. 0.
 0. 0. 0. 0.
 0. 0. 0. 0.
 0. 0. 0. 0.
 0. 0. 0. 0.
 0. 0. 0. 0.
 0. 0. 0. 0.
 0. 0. 0. 0.
 0. 0. 0. 0.
 0. 0. 0. 0.
 0. 0. 0. 0.
 0. 0. 0. 0.
 0. 0. 0. 0.
 0. 0. 0. 0.
 0. 0. 0. 0.
 0. 0. 0. 0.
 0. 0. 0. 0.
 0. 0. 0. 0.
 0. 0. 0. 0.
 0. 0. 0. 0.
 0. 0. 0. 0.
 0. 0. 0. 0.
 0. 0. 0. 0.
 0. 0. 0. 0.
 0. 0. 0. 0.
 0. 0. 0. 0.
 0. 0. 0. 0.
 0. 0. 0. 0.
 0. 0. 0. 0.
 0. 0. 0. 0.
 0. 0. 0. 0.
 0. 0. 0. 0.
 0. 0. 0. 0.
 0. 0. 0. 0.
 0. 0. 0. 0.
 0. 0. 0. 0.
 0. 0. 0. 0.
 0. 0. 0. 0.
 0. 0. 0. 0.
 0. 0. 0. 0.
 0. 0. 0. 0.
 0. 0. 0. 0.
 0. 0. 0. 0.
 0. 0. 0. 0.
 0. 0. 0. 0.
 0. 0. 0. 0.
 0. 0. 0. 0.
 0. 0. 0. 0.
 0. 0. 0. 0.
 0. 0. 0. 0.
 0. 0. 0. 0.
 0. 0. 0. 0.
 0. 0. 0. 0.
 0. 0. 0. 0.
 0. 0. 0. 0.
 0. 0. 0. 0.
 0. 0. 0. 0.
 0. 0. 0. 0.
 0. 0. 0. 0.
 0. 0. 0. 0.
 0. 0. 0. 0.
 0. 0. 0. 0.
 0. 0. 0. 0.
 0. 0. 0. 0.
 0. 0. 0. 0.
 0. 0. 0. 0.
 0. 0. 0. 0.
 0. 0. 0. 0.
 0. 0. 0. 0.
 0. 0. 0. 0.
 0. 0. 0. 0.
 0. 0. 0. 0.
 0. 0. 0. 0.
 0. 0. 0. 0.
 0. 0. 0. 0.
 0. 0. 0. 0.
 0. 0. 0. 0.
 0. 0. 0. 0.
 0. 0. 0. 0.
 0. 0. 0. 0.
 0. 0. 0. 0.
 0. 0. 0. 0.
 0. 0. 0. 0.
 0. 0. 0. 0.
 0. 0. 0. 0.
 0. 0. 0. 0.
 0. 0. 0. 0.
 0. 0. 0. 0.
 0. 0. 0. 0.
 0. 0. 0. 0.
 0. 0. 0. 0.
 0. 0. 0. 0.
 0. 0. 0. 0.
 0. 0. 0. 0.
 0. 0. 0. 0.
 0. 0. 0. 0.
 0. 0. 0. 0.
 0. 0. 0. 0.
 0. 0. 0. 0.
 0. 0. 0. 0.
 0. 0. 0. 0.
 0. 0. 0. 0.
 0. 0. 0. 0.
 0. 0. 0. 0.
 0. 0. 0. 0.
 0. 0. 0. 0.
 0. 0. 0. 0.
 0. 0. 0. 0.
 0. 0. 0. 0.
 0. 0. 0. 0.
 0. 0. 0. 0.
 0. 0. 0. 0.
 0. 0. 0. 0.
 0. 0. 0. 0.
 0. 0. 0. 0.
 0. 0. 0. 0.
 0. 0. 0. 0.
 0. 0. 0. 0.
 0. 0. 0. 0.
 0. 0. 0. 0.
 0. 0. 0. 0.
 0. 0. 0. 0.
 0. 0. 0. 0.
 0. 0. 0. 0.
 0. 0. 0. 0.
 0. 0. 0. 0.
 0. 0. 0. 0.
 0. 0. 0. 0.
 0. 0. 0. 0.
 0. 0. 0. 0.
 0. 0. 0. 0.
 0. 0. 0. 0.
 0. 0. 0. 0.
 0. 0. 0. 0.
 0. 0. 0. 0.
 0. 0. 0. 0.
 0. 0. 0. 0.
 0. 0. 0. 0.
 0. 0. 0. 0.
 0. 0. 0. 0.
 0. 0. 0. 0.
 0. 0. 0. 0.
 0. 0. 0. 0.
   </PP_BETA.1>
   <PP_BETA.2
       type="real"
       size="1940"
       columns="4"
       index="2"
       angular_momentum="0"
       cutoff_radius_index=" 216"
       cutoff_radius="    2.1500000000E+00" >
   -8.8059303772E-11    1.2560167353E-03    2.4639995633E-03    3.5763163066E-03
    4.5461352506E-03    5.3278179036E-03    5.8773028542E-03    6.1524778629E-03
    6.1135374116E-03    5.7233230448E-03    4.9476439651E-03    3.7555754931E-03
    2.1197331686E-03    1.6520452482E-05   -2.5736518142E-03   -5.6661758221E-03
   -9.2720884838E-03   -1.3397945571E-02   -1.8045729227E-02   -2.3212789522E-02
   -2.8891820475E-02   -3.5070870700E-02   -4.1733388561E-02   -4.8858301478E-02
   -5.6420128755E-02   -6.4389127058E-02   -7.2731467392E-02   -8.1409442242E-02
   -9.0381701248E-02   -9.9603513621E-02   -1.0902705527E-01   -1.1860171843E-01
   -1.2827444143E-01   -1.3799005599E-01   -1.4769164953E-01   -1.5732093951E-01
   -1.6681865711E-01   -1.7612493714E-01   -1.8517971130E-01   -1.9392310170E-01
   -2.0229581171E-01   -2.1023951094E-01   -2.1769721168E-01   -2.2461363365E-01
   -2.3093555446E-01   -2.3661214302E-01   -2.4159527332E-01   -2.4583981639E-01
   -2.4930390793E-01   -2.5194918994E-01   -2.5374102434E-01   -2.5464867705E-01
   -2.5464547128E-01   -2.5370890891E-01   -2.5182075913E-01   -2.4896711388E-01
   -2.4513840976E-01   -2.4032941644E-01   -2.3453919195E-01   -2.2777100526E-01
   -2.2003222725E-01   -2.1133419093E-01   -2.0169202248E-01   -1.9112444471E-01
   -1.7965355476E-01   -1.6730457817E-01   -1.5410560165E-01   -1.4008728700E-01
   -1.2528256886E-01   -1.0972633912E-01   -9.3455120827E-02   -7.6506734700E-02
   -5.8919961296E-02   -4.0734201953E-02   -2.1989141653E-02   -2.7244169325E-03
    1.7020708097E-02    3.7207654604E-02    5.7798827898E-02    7.8757899517E-02
    1.0005006998E-01    1.2164230979E-01    1.4350357653E-01    1.6560500615E-01
    1.8792007680E-01    2.1042474384E-01    2.3309754513E-01    2.5591967587E-01
    2.7887503278E-01    3.0195022778E-01    3.2513457167E-01    3.4842002899E-01
    3.7180114543E-01    3.9527494982E-01    4.1884083341E-01    4.4250040923E-01
    4.6625735555E-01    4.9011724751E-01    5.1408738208E-01    5.3817660202E-01
    5.6239512529E-01    5.8675438746E-01    6.1126690532E-01    6.3594617122E-01
    6.6080658874E-01    6.8586346170E-01    7.1113305010E-01    7.3663270836E-01
    7.6238112327E-01    7.8839867145E-01    8.1470791865E-01    8.4133428660E-01
    8.6830691598E-01    8.9565975837E-01    9.2343293349E-01    9.5167439223E-01
    9.8044192935E-01    1.0098055923E+00    1.0398505326E+00    1.0706803424E+00
    1.1024209078E+00    1.1352247874E+00    1.1692760820E+00    1.2047956889E+00
    1.2420467104E+00    1.2813395886E+00    1.3230362205E+00    1.3675518057E+00
    1.4153527651E+00    1.4670092016E+00    1.5184610209E+00    1.5566735304E+00
    1.5854729074E+00    1.6084073317E+00    1.6273696270E+00    1.6430756031E+00
    1.6554718178E+00    1.6640749486E+00    1.6682396611E+00    1.6673553559E+00
    1.6609757433E+00    1.6488885551E+00    1.6311353978E+00    1.6079934466E+00
    1.5799316576E+00    1.5475052975E+00    1.5111546568E+00    1.4712825197E+00
    1.4282818202E+00    1.3825212835E+00    1.3343379562E+00    1.2840348526E+00
    1.2318823404E+00    1.1781219698E+00    1.1229716275E+00    1.0666311205E+00
    1.0092875389E+00    9.5111996832E-01    8.9230332371E-01    8.3301123172E-01
    7.7341800482E-01    7.1369982777E-01    6.5403531749E-01    5.9460563017E-01
    5.3559427956E-01    4.7718680578E-01    4.1957040030E-01    3.6293355615E-01
    3.0746577562E-01    2.5335733479E-01    2.0079907564E-01    1.4998217255E-01
    1.0109780005E-01    5.4336612897E-02    9.8879701287E-03   -3.2063259332E-02
   -7.1304788935E-02   -1.0750524049E-01   -1.4039684641E-01   -1.6974664936E-01
   -1.9532674834E-01   -2.1693215706E-01   -2.3439159247E-01   -2.4752825338E-01
   -2.5617600560E-01   -2.6018409378E-01   -2.5941802601E-01   -2.5376047956E-01
   -2.4311204638E-01   -2.2739184649E-01   -2.0653803612E-01   -1.8050823070E-01
   -1.4927985683E-01   -1.1285044060E-01   -7.1165981806E-02   -2.3477530923E-02
    7.0271362677E-04    7.0807342240E-05    0.0000000000E+00    0.0000000000E+00
    0.0000000000E+00    0.0000000000E+00    0.0000000000E+00    0.0000000000E+00
    0.0000000000E+00    0.0000000000E+00    0.0000000000E+00    0.0000000000E+00
    0.0000000000E+00    0.0000000000E+00    0.0000000000E+00    0.0000000000E+00
    0.0000000000E+00    0.0000000000E+00    0.0000000000E+00    0.0000000000E+00
 0. 0. 0. 0.
 0. 0. 0. 0.
 0. 0. 0. 0.
 0. 0. 0. 0.
 0. 0. 0. 0.
 0. 0. 0. 0.
 0. 0. 0. 0.
 0. 0. 0. 0.
 0. 0. 0. 0.
 0. 0. 0. 0.
 0. 0. 0. 0.
 0. 0. 0. 0.
 0. 0. 0. 0.
 0. 0. 0. 0.
 0. 0. 0. 0.
 0. 0. 0. 0.
 0. 0. 0. 0.
 0. 0. 0. 0.
 0. 0. 0. 0.
 0. 0. 0. 0.
 0. 0. 0. 0.
 0. 0. 0. 0.
 0. 0. 0. 0.
 0. 0. 0. 0.
 0. 0. 0. 0.
 0. 0. 0. 0.
 0. 0. 0. 0.
 0. 0. 0. 0.
 0. 0. 0. 0.
 0. 0. 0. 0.
 0. 0. 0. 0.
 0. 0. 0. 0.
 0. 0. 0. 0.
 0. 0. 0. 0.
 0. 0. 0. 0.
 0. 0. 0. 0.
 0. 0. 0. 0.
 0. 0. 0. 0.
 0. 0. 0. 0.
 0. 0. 0. 0.
 0. 0. 0. 0.
 0. 0. 0. 0.
 0. 0. 0. 0.
 0. 0. 0. 0.
 0. 0. 0. 0.
 0. 0. 0. 0.
 0. 0. 0. 0.
 0. 0. 0. 0.
 0. 0. 0. 0.
 0. 0. 0. 0.
 0. 0. 0. 0.
 0. 0. 0. 0.
 0. 0. 0. 0.
 0. 0. 0. 0.
 0. 0. 0. 0.
 0. 0. 0. 0.
 0. 0. 0. 0.
 0. 0. 0. 0.
 0. 0. 0. 0.
 0. 0. 0. 0.
 0. 0. 0. 0.
 0. 0. 0. 0.
 0. 0. 0. 0.
 0. 0. 0. 0.
 0. 0. 0. 0.
 0. 0. 0. 0.
 0. 0. 0. 0.
 0. 0. 0. 0.
 0. 0. 0. 0.
 0. 0. 0. 0.
 0. 0. 0. 0.
 0. 0. 0. 0.
 0. 0. 0. 0.
 0. 0. 0. 0.
 0. 0. 0. 0.
 0. 0. 0. 0.
 0. 0. 0. 0.
 0. 0. 0. 0.
 0. 0. 0. 0.
 0. 0. 0. 0.
 0. 0. 0. 0.
 0. 0. 0. 0.
 0. 0. 0. 0.
 0. 0. 0. 0.
 0. 0. 0. 0.
 0. 0. 0. 0.
 0. 0. 0. 0.
 0. 0. 0. 0.
 0. 0. 0. 0.
 0. 0. 0. 0.
 0. 0. 0. 0.
 0. 0. 0. 0.
 0. 0. 0. 0.
 0. 0. 0. 0.
 0. 0. 0. 0.
 0. 0. 0. 0.
 0. 0. 0. 0.
 0. 0. 0. 0.
 0. 0. 0. 0.
 0. 0. 0. 0.
 0. 0. 0. 0.
 0. 0. 0. 0.
 0. 0. 0. 0.
 0. 0. 0. 0.
 0. 0. 0. 0.
 0. 0. 0. 0.
 0. 0. 0. 0.
 0. 0. 0. 0.
 0. 0. 0. 0.
 0. 0. 0. 0.
 0. 0. 0. 0.
 0. 0. 0. 0.
 0. 0. 0. 0.
 0. 0. 0. 0.
 0. 0. 0. 0.
 0. 0. 0. 0.
 0. 0. 0. 0.
 0. 0. 0. 0.
 0. 0. 0. 0.
 0. 0. 0. 0.
 0. 0. 0. 0.
 0. 0. 0. 0.
 0. 0. 0. 0.
 0. 0. 0. 0.
 0. 0. 0. 0.
 0. 0. 0. 0.
 0. 0. 0. 0.
 0. 0. 0. 0.
 0. 0. 0. 0.
 0. 0. 0. 0.
 0. 0. 0. 0.
 0. 0. 0. 0.
 0. 0. 0. 0.
 0. 0. 0. 0.
 0. 0. 0. 0.
 0. 0. 0. 0.
 0. 0. 0. 0.
 0. 0. 0. 0.
 0. 0. 0. 0.
 0. 0. 0. 0.
 0. 0. 0. 0.
 0. 0. 0. 0.
 0. 0. 0. 0.
 0. 0. 0. 0.
 0. 0. 0. 0.
 0. 0. 0. 0.
 0. 0. 0. 0.
 0. 0. 0. 0.
 0. 0. 0. 0.
 0. 0. 0. 0.
 0. 0. 0. 0.
 0. 0. 0. 0.
 0. 0. 0. 0.
 0. 0. 0. 0.
 0. 0. 0. 0.
 0. 0. 0. 0.
 0. 0. 0. 0.
 0. 0. 0. 0.
 0. 0. 0. 0.
 0. 0. 0. 0.
 0. 0. 0. 0.
 0. 0. 0. 0.
 0. 0. 0. 0.
 0. 0. 0. 0.
 0. 0. 0. 0.
 0. 0. 0. 0.
 0. 0. 0. 0.
 0. 0. 0. 0.
 0. 0. 0. 0.
 0. 0. 0. 0.
 0. 0. 0. 0.
 0. 0. 0. 0.
 0. 0. 0. 0.
 0. 0. 0. 0.
 0. 0. 0. 0.
 0. 0. 0. 0.
 0. 0. 0. 0.
 0. 0. 0. 0.
 0. 0. 0. 0.
 0. 0. 0. 0.
 0. 0. 0. 0.
 0. 0. 0. 0.
 0. 0. 0. 0.
 0. 0. 0. 0.
 0. 0. 0. 0.
 0. 0. 0. 0.
 0. 0. 0. 0.
 0. 0. 0. 0.
 0. 0. 0. 0.
 0. 0. 0. 0.
 0. 0. 0. 0.
 0. 0. 0. 0.
 0. 0. 0. 0.
 0. 0. 0. 0.
 0. 0. 0. 0.
 0. 0. 0. 0.
 0. 0. 0. 0.
 0. 0. 0. 0.
 0. 0. 0. 0.
 0. 0. 0. 0.
 0. 0. 0. 0.
 0. 0. 0. 0.
 0. 0. 0. 0.
 0. 0. 0. 0.
 0. 0. 0. 0.
 0. 0. 0. 0.
 0. 0. 0. 0.
 0. 0. 0. 0.
 0. 0. 0. 0.
 0. 0. 0. 0.
 0. 0. 0. 0.
 0. 0. 0. 0.
 0. 0. 0. 0.
 0. 0. 0. 0.
 0. 0. 0. 0.
 0. 0. 0. 0.
 0. 0. 0. 0.
 0. 0. 0. 0.
 0. 0. 0. 0.
 0. 0. 0. 0.
 0. 0. 0. 0.
 0. 0. 0. 0.
 0. 0. 0. 0.
 0. 0. 0. 0.
 0. 0. 0. 0.
 0. 0. 0. 0.
 0. 0. 0. 0.
 0. 0. 0. 0.
 0. 0. 0. 0.
 0. 0. 0. 0.
 0. 0. 0. 0.
 0. 0. 0. 0.
 0. 0. 0. 0.
 0. 0. 0. 0.
 0. 0. 0. 0.
 0. 0. 0. 0.
 0. 0. 0. 0.
 0. 0. 0. 0.
 0. 0. 0. 0.
 0. 0. 0. 0.
 0. 0. 0. 0.
 0. 0. 0. 0.
 0. 0. 0. 0.
 0. 0. 0. 0.
 0. 0. 0. 0.
 0. 0. 0. 0.
 0. 0. 0. 0.
 0. 0. 0. 0.
 0. 0. 0. 0.
 0. 0. 0. 0.
 0. 0. 0. 0.
 0. 0. 0. 0.
 0. 0. 0. 0.
 0. 0. 0. 0.
 0. 0. 0. 0.
 0. 0. 0. 0.
 0. 0. 0. 0.
 0. 0. 0. 0.
 0. 0. 0. 0.
 0. 0. 0. 0.
 0. 0. 0. 0.
 0. 0. 0. 0.
 0. 0. 0. 0.
 0. 0. 0. 0.
 0. 0. 0. 0.
 0. 0. 0. 0.
 0. 0. 0. 0.
 0. 0. 0. 0.
 0. 0. 0. 0.
 0. 0. 0. 0.
 0. 0. 0. 0.
 0. 0. 0. 0.
 0. 0. 0. 0.
 0. 0. 0. 0.
 0. 0. 0. 0.
 0. 0. 0. 0.
 0. 0. 0. 0.
 0. 0. 0. 0.
 0. 0. 0. 0.
 0. 0. 0. 0.
 0. 0. 0. 0.
 0. 0. 0. 0.
 0. 0. 0. 0.
 0. 0. 0. 0.
 0. 0. 0. 0.
 0. 0. 0. 0.
 0. 0. 0. 0.
 0. 0. 0. 0.
 0. 0. 0. 0.
 0. 0. 0. 0.
 0. 0. 0. 0.
 0. 0. 0. 0.
 0. 0. 0. 0.
 0. 0. 0. 0.
 0. 0. 0. 0.
 0. 0. 0. 0.
 0. 0. 0. 0.
 0. 0. 0. 0.
 0. 0. 0. 0.
 0. 0. 0. 0.
 0. 0. 0. 0.
 0. 0. 0. 0.
 0. 0. 0. 0.
 0. 0. 0. 0.
 0. 0. 0. 0.
 0. 0. 0. 0.
 0. 0. 0. 0.
 0. 0. 0. 0.
 0. 0. 0. 0.
 0. 0. 0. 0.
 0. 0. 0. 0.
 0. 0. 0. 0.
 0. 0. 0. 0.
 0. 0. 0. 0.
 0. 0. 0. 0.
 0. 0. 0. 0.
 0. 0. 0. 0.
 0. 0. 0. 0.
 0. 0. 0. 0.
 0. 0. 0. 0.
 0. 0. 0. 0.
 0. 0. 0. 0.
 0. 0. 0. 0.
 0. 0. 0. 0.
 0. 0. 0. 0.
 0. 0. 0. 0.
 0. 0. 0. 0.
 0. 0. 0. 0.
 0. 0. 0. 0.
 0. 0. 0. 0.
 0. 0. 0. 0.
 0. 0. 0. 0.
 0. 0. 0. 0.
 0. 0. 0. 0.
 0. 0. 0. 0.
 0. 0. 0. 0.
 0. 0. 0. 0.
 0. 0. 0. 0.
 0. 0. 0. 0.
 0. 0. 0. 0.
 0. 0. 0. 0.
 0. 0. 0. 0.
 0. 0. 0. 0.
 0. 0. 0. 0.
 0. 0. 0. 0.
 0. 0. 0. 0.
 0. 0. 0. 0.
 0. 0. 0. 0.
 0. 0. 0. 0.
 0. 0. 0. 0.
 0. 0. 0. 0.
 0. 0. 0. 0.
 0. 0. 0. 0.
 0. 0. 0. 0.
 0. 0. 0. 0.
 0. 0. 0. 0.
 0. 0. 0. 0.
 0. 0. 0. 0.
 0. 0. 0. 0.
 0. 0. 0. 0.
 0. 0. 0. 0.
 0. 0. 0. 0.
 0. 0. 0. 0.
 0. 0. 0. 0.
 0. 0. 0. 0.
 0. 0. 0. 0.
 0. 0. 0. 0.
 0. 0. 0. 0.
 0. 0. 0. 0.
 0. 0. 0. 0.
 0. 0. 0. 0.
 0. 0. 0. 0.
 0. 0. 0. 0.
 0. 0. 0. 0.
 0. 0. 0. 0.
 0. 0. 0. 0.
 0. 0. 0. 0.
 0. 0. 0. 0.
 0. 0. 0. 0.
 0. 0. 0. 0.
 0. 0. 0. 0.
 0. 0. 0. 0.
 0. 0. 0. 0.
 0. 0. 0. 0.
 0. 0. 0. 0.
 0. 0. 0. 0.
 0. 0. 0. 0.
 0. 0. 0. 0.
 0. 0. 0. 0.
 0. 0. 0. 0.
 0. 0. 0. 0.
 0. 0. 0. 0.
 0. 0. 0. 0.
 0. 0. 0. 0.
 0. 0. 0. 0.
 0. 0. 0. 0.
 0. 0. 0. 0.
 0. 0. 0. 0.
 0. 0. 0. 0.
 0. 0. 0. 0.
 0. 0. 0. 0.
 0. 0. 0. 0.
 0. 0. 0. 0.
 0. 0. 0. 0.
 0. 0. 0. 0.
 0. 0. 0. 0.
 0. 0. 0. 0.
 0. 0. 0. 0.
 0. 0. 0. 0.
 0. 0. 0. 0.
 0. 0. 0. 0.
 0. 0. 0. 0.
 0. 0. 0. 0.
 0. 0. 0. 0.
 0. 0. 0. 0.
 0. 0. 0. 0.
 0. 0. 0. 0.
 0. 0. 0. 0.
 0. 0. 0. 0.
 0. 0. 0. 0.
 0. 0. 0. 0.
 0. 0. 0. 0.
 0. 0. 0. 0.
 0. 0. 0. 0.
 0. 0. 0. 0.
 0. 0. 0. 0.
 0. 0. 0. 0.
 0. 0. 0. 0.
 0. 0. 0. 0.
 0. 0. 0. 0.
 0. 0. 0. 0.
   </PP_BETA.2>
   <PP_BETA.3
       type="real"
       size="1940"
       columns="4"
       index="3"
       angular_momentum="1"
       cutoff_radius_index=" 216"
       cutoff_radius="    2.1500000000E+00" >
    1.9042799074E-09    6.7159743441E-04    2.6818828162E-03    6.0174027567E-03
    1.0655958440E-02    1.6566937086E-02    2.3711768499E-02    3.2044499317E-02
    4.1512475727E-02    5.2057123578E-02    6.3614813315E-02    7.6117795716E-02
    8.9495193264E-02    1.0367403109E-01    1.1858029066E-01    1.3413996917E-01
    1.5028012713E-01    1.6692990722E-01    1.8402150747E-01    2.0149109281E-01
    2.1927962980E-01    2.3733363070E-01    2.5560579416E-01    2.7405553187E-01
    2.9264937180E-01    3.1136123105E-01    3.3017255312E-01    3.4907230672E-01
    3.6805684533E-01    3.8712962919E-01    4.0630081336E-01    4.2558670791E-01
    4.4500911821E-01    4.6459457553E-01    4.8437346970E-01    5.0437909756E-01
    5.2464664214E-01    5.4521209902E-01    5.6611116694E-01    5.8737812091E-01
    6.0904468626E-01    6.3113893214E-01    6.5368420318E-01    6.7669810736E-01
    7.0019157748E-01    7.2416802272E-01    7.4862258553E-01    7.7354151741E-01
    7.9890168581E-01    8.2467022199E-01    8.5080431806E-01    8.7725117873E-01
    9.0394813146E-01    9.3082289566E-01    9.5779400987E-01    9.8477141266E-01
    1.0116571712E+00    1.0383463484E+00    1.0647279987E+00    1.0906862777E+00
    1.1161016530E+00    1.1408521976E+00    1.1648149490E+00    1.1878673144E+00
    1.2098885015E+00    1.2307609547E+00    1.2503717751E+00    1.2686141028E+00
    1.2853884419E+00    1.3006039070E+00    1.3141793719E+00    1.3260445038E+00
    1.3361406647E+00    1.3444216675E+00    1.3508543723E+00    1.3554191136E+00
    1.3581099506E+00    1.3589347343E+00    1.3579149902E+00    1.3550856146E+00
    1.3504943898E+00    1.3442013209E+00    1.3362778054E+00    1.3268056434E+00
    1.3158759041E+00    1.3035876624E+00    1.2900466239E+00    1.2753636578E+00
    1.2596532570E+00    1.2430319497E+00    1.2256166839E+00    1.2075232076E+00
    1.1888644708E+00    1.1697490702E+00    1.1502797607E+00    1.1305520554E+00
    1.1106529357E+00    1.0906596886E+00    1.0706388906E+00    1.0506455513E+00
    1.0307224308E+00    1.0108995386E+00    9.9119382207E-01    9.7160904731E-01
    9.5213587206E-01    9.3275210768E-01    9.1342316277E-01    8.9410265771E-01
    8.7473319565E-01    8.5524727180E-01    8.3556829924E-01    8.1561172560E-01
    7.9528621186E-01    7.7449484066E-01    7.5313631843E-01    7.3110613269E-01
    7.0829762285E-01    6.8460292097E-01    6.5991371746E-01    6.3412180668E-01
    6.0711936975E-01    5.7879895770E-01    5.4905314954E-01    5.1777388083E-01
    4.8485147355E-01    4.5017345662E-01    4.1362336074E-01    3.7507982178E-01
    3.3441647356E-01    2.9148812097E-01    2.4733526641E-01    2.0542747515E-01
    1.6503945752E-01    1.2545208875E-01    8.6337075721E-02    4.7662582767E-02
    9.6045939535E-03   -2.7533706612E-02   -6.3391077107E-02   -9.7603571533E-02
   -1.2984502841E-01   -1.5985286780E-01   -1.8744049391E-01   -2.1249847830E-01
   -2.3498738315E-01   -2.5491070390E-01   -2.7225610715E-01   -2.8701867701E-01
   -2.9921011633E-01   -3.0885507284E-01   -3.1598918616E-01   -3.2065843304E-01
   -3.2291942662E-01   -3.2284031709E-01   -3.2050196632E-01   -3.1599911976E-01
   -3.0944136071E-01   -3.0095369824E-01   -2.9067670181E-01   -2.7876614995E-01
   -2.6539220374E-01   -2.5073814776E-01   -2.3499876222E-01   -2.1837840032E-01
   -2.0108884737E-01   -1.8334703380E-01   -1.6537266562E-01   -1.4738582513E-01
   -1.2960458236E-01   -1.1224264649E-01   -9.5507076114E-02   -7.9596057807E-02
   -6.4696755292E-02   -5.0983224998E-02   -3.8614400626E-02   -2.7731445926E-02
   -1.8467073479E-02   -1.0974691421E-02   -5.3658181054E-03   -1.7198970970E-03
   -1.0310200602E-04   -3.8947006570E-06    4.1262674922E-11    0.0000000000E+00
    0.0000000000E+00    0.0000000000E+00    0.0000000000E+00    0.0000000000E+00
    0.0000000000E+00    0.0000000000E+00    0.0000000000E+00    0.0000000000E+00
    0.0000000000E+00    0.0000000000E+00    0.0000000000E+00    0.0000000000E+00
    0.0000000000E+00    0.0000000000E+00    0.0000000000E+00    0.0000000000E+00
    0.0000000000E+00    0.0000000000E+00    0.0000000000E+00    0.0000000000E+00
    0.0000000000E+00    0.0000000000E+00    0.0000000000E+00    0.0000000000E+00
    0.0000000000E+00    0.0000000000E+00    0.0000000000E+00    0.0000000000E+00
    0.0000000000E+00    0.0000000000E+00    0.0000000000E+00    0.0000000000E+00
 0. 0. 0. 0.
 0. 0. 0. 0.
 0. 0. 0. 0.
 0. 0. 0. 0.
 0. 0. 0. 0.
 0. 0. 0. 0.
 0. 0. 0. 0.
 0. 0. 0. 0.
 0. 0. 0. 0.
 0. 0. 0. 0.
 0. 0. 0. 0.
 0. 0. 0. 0.
 0. 0. 0. 0.
 0. 0. 0. 0.
 0. 0. 0. 0.
 0. 0. 0. 0.
 0. 0. 0. 0.
 0. 0. 0. 0.
 0. 0. 0. 0.
 0. 0. 0. 0.
 0. 0. 0. 0.
 0. 0. 0. 0.
 0. 0. 0. 0.
 0. 0. 0. 0.
 0. 0. 0. 0.
 0. 0. 0. 0.
 0. 0. 0. 0.
 0. 0. 0. 0.
 0. 0. 0. 0.
 0. 0. 0. 0.
 0. 0. 0. 0.
 0. 0. 0. 0.
 0. 0. 0. 0.
 0. 0. 0. 0.
 0. 0. 0. 0.
 0. 0. 0. 0.
 0. 0. 0. 0.
 0. 0. 0. 0.
 0. 0. 0. 0.
 0. 0. 0. 0.
 0. 0. 0. 0.
 0. 0. 0. 0.
 0. 0. 0. 0.
 0. 0. 0. 0.
 0. 0. 0. 0.
 0. 0. 0. 0.
 0. 0. 0. 0.
 0. 0. 0. 0.
 0. 0. 0. 0.
 0. 0. 0. 0.
 0. 0. 0. 0.
 0. 0. 0. 0.
 0. 0. 0. 0.
 0. 0. 0. 0.
 0. 0. 0. 0.
 0. 0. 0. 0.
 0. 0. 0. 0.
 0. 0. 0. 0.
 0. 0. 0. 0.
 0. 0. 0. 0.
 0. 0. 0. 0.
 0. 0. 0. 0.
 0. 0. 0. 0.
 0. 0. 0. 0.
 0. 0. 0. 0.
 0. 0. 0. 0.
 0. 0. 0. 0.
 0. 0. 0. 0.
 0. 0. 0. 0.
 0. 0. 0. 0.
 0. 0. 0. 0.
 0. 0. 0. 0.
 0. 0. 0. 0.
 0. 0. 0. 0.
 0. 0. 0. 0.
 0. 0. 0. 0.
 0. 0. 0. 0.
 0. 0. 0. 0.
 0. 0. 0. 0.
 0. 0. 0. 0.
 0. 0. 0. 0.
 0. 0. 0. 0.
 0. 0. 0. 0.
 0. 0. 0. 0.
 0. 0. 0. 0.
 0. 0. 0. 0.
 0. 0. 0. 0.
 0. 0. 0. 0.
 0. 0. 0. 0.
 0. 0. 0. 0.
 0. 0. 0. 0.
 0. 0. 0. 0.
 0. 0. 0. 0.
 0. 0. 0. 0.
 0. 0. 0. 0.
 0. 0. 0. 0.
 0. 0. 0. 0.
 0. 0. 0. 0.
 0. 0. 0. 0.
 0. 0. 0. 0.
 0. 0. 0. 0.
 0. 0. 0. 0.
 0. 0. 0. 0.
 0. 0. 0. 0.
 0. 0. 0. 0.
 0. 0. 0. 0.
 0. 0. 0. 0.
 0. 0. 0. 0.
 0. 0. 0. 0.
 0. 0. 0. 0.
 0. 0. 0. 0.
 0. 0. 0. 0.
 0. 0. 0. 0.
 0. 0. 0. 0.
 0. 0. 0. 0.
 0. 0. 0. 0.
 0. 0. 0. 0.
 0. 0. 0. 0.
 0. 0. 0. 0.
 0. 0. 0. 0.
 0. 0. 0. 0.
 0. 0. 0. 0.
 0. 0. 0. 0.
 0. 0. 0. 0.
 0. 0. 0. 0.
 0. 0. 0. 0.
 0. 0. 0. 0.
 0. 0. 0. 0.
 0. 0. 0. 0.
 0. 0. 0. 0.
 0. 0. 0. 0.
 0. 0. 0. 0.
 0. 0. 0. 0.
 0. 0. 0. 0.
 0. 0. 0. 0.
 0. 0. 0. 0.
 0. 0. 0. 0.
 0. 0. 0. 0.
 0. 0. 0. 0.
 0. 0. 0. 0.
 0. 0. 0. 0.
 0. 0. 0. 0.
 0. 0. 0. 0.
 0. 0. 0. 0.
 0. 0. 0. 0.
 0. 0. 0. 0.
 0. 0. 0. 0.
 0. 0. 0. 0.
 0. 0. 0. 0.
 0. 0. 0. 0.
 0. 0. 0. 0.
 0. 0. 0. 0.
 0. 0. 0. 0.
 0. 0. 0. 0.
 0. 0. 0. 0.
 0. 0. 0. 0.
 0. 0. 0. 0.
 0. 0. 0. 0.
 0. 0. 0. 0.
 0. 0. 0. 0.
 0. 0. 0. 0.
 0. 0. 0. 0.
 0. 0. 0. 0.
 0. 0. 0. 0.
 0. 0. 0. 0.
 0. 0. 0. 0.
 0. 0. 0. 0.
 0. 0. 0. 0.
 0. 0. 0. 0.
 0. 0. 0. 0.
 0. 0. 0. 0.
 0. 0. 0. 0.
 0. 0. 0. 0.
 0. 0. 0. 0.
 0. 0. 0. 0.
 0. 0. 0. 0.
 0. 0. 0. 0.
 0. 0. 0. 0.
 0. 0. 0. 0.
 0. 0. 0. 0.
 0. 0. 0. 0.
 0. 0. 0. 0.
 0. 0. 0. 0.
 0. 0. 0. 0.
 0. 0. 0. 0.
 0. 0. 0. 0.
 0. 0. 0. 0.
 0. 0. 0. 0.
 0. 0. 0. 0.
 0. 0. 0. 0.
 0. 0. 0. 0.
 0. 0. 0. 0.
 0. 0. 0. 0.
 0. 0. 0. 0.
 0. 0. 0. 0.
 0. 0. 0. 0.
 0. 0. 0. 0.
 0. 0. 0. 0.
 0. 0. 0. 0.
 0. 0. 0. 0.
 0. 0. 0. 0.
 0. 0. 0. 0.
 0. 0. 0. 0.
 0. 0. 0. 0.
 0. 0. 0. 0.
 0. 0. 0. 0.
 0. 0. 0. 0.
 0. 0. 0. 0.
 0. 0. 0. 0.
 0. 0. 0. 0.
 0. 0. 0. 0.
 0. 0. 0. 0.
 0. 0. 0. 0.
 0. 0. 0. 0.
 0. 0. 0. 0.
 0. 0. 0. 0.
 0. 0. 0. 0.
 0. 0. 0. 0.
 0. 0. 0. 0.
 0. 0. 0. 0.
 0. 0. 0. 0.
 0. 0. 0. 0.
 0. 0. 0. 0.
 0. 0. 0. 0.
 0. 0. 0. 0.
 0. 0. 0. 0.
 0. 0. 0. 0.
 0. 0. 0. 0.
 0. 0. 0. 0.
 0. 0. 0. 0.
 0. 0. 0. 0.
 0. 0. 0. 0.
 0. 0. 0. 0.
 0. 0. 0. 0.
 0. 0. 0. 0.
 0. 0. 0. 0.
 0. 0. 0. 0.
 0. 0. 0. 0.
 0. 0. 0. 0.
 0. 0. 0. 0.
 0. 0. 0. 0.
 0. 0. 0. 0.
 0. 0. 0. 0.
 0. 0. 0. 0.
 0. 0. 0. 0.
 0. 0. 0. 0.
 0. 0. 0. 0.
 0. 0. 0. 0.
 0. 0. 0. 0.
 0. 0. 0. 0.
 0. 0. 0. 0.
 0. 0. 0. 0.
 0. 0. 0. 0.
 0. 0. 0. 0.
 0. 0. 0. 0.
 0. 0. 0. 0.
 0. 0. 0. 0.
 0. 0. 0. 0.
 0. 0. 0. 0.
 0. 0. 0. 0.
 0. 0. 0. 0.
 0. 0. 0. 0.
 0. 0. 0. 0.
 0. 0. 0. 0.
 0. 0. 0. 0.
 0. 0. 0. 0.
 0. 0. 0. 0.
 0. 0. 0. 0.
 0. 0. 0. 0.
 0. 0. 0. 0.
 0. 0. 0. 0.
 0. 0. 0. 0.
 0. 0. 0. 0.
 0. 0. 0. 0.
 0. 0. 0. 0.
 0. 0. 0. 0.
 0. 0. 0. 0.
 0. 0. 0. 0.
 0. 0. 0. 0.
 0. 0. 0. 0.
 0. 0. 0. 0.
 0. 0. 0. 0.
 0. 0. 0. 0.
 0. 0. 0. 0.
 0. 0. 0. 0.
 0. 0. 0. 0.
 0. 0. 0. 0.
 0. 0. 0. 0.
 0. 0. 0. 0.
 0. 0. 0. 0.
 0. 0. 0. 0.
 0. 0. 0. 0.
 0. 0. 0. 0.
 0. 0. 0. 0.
 0. 0. 0. 0.
 0. 0. 0. 0.
 0. 0. 0. 0.
 0. 0. 0. 0.
 0. 0. 0. 0.
 0. 0. 0. 0.
 0. 0. 0. 0.
 0. 0. 0. 0.
 0. 0. 0. 0.
 0. 0. 0. 0.
 0. 0. 0. 0.
 0. 0. 0. 0.
 0. 0. 0. 0.
 0. 0. 0. 0.
 0. 0. 0. 0.
 0. 0. 0. 0.
 0. 0. 0. 0.
 0. 0. 0. 0.
 0. 0. 0. 0.
 0. 0. 0. 0.
 0. 0. 0. 0.
 0. 0. 0. 0.
 0. 0. 0. 0.
 0. 0. 0. 0.
 0. 0. 0. 0.
 0. 0. 0. 0.
 0. 0. 0. 0.
 0. 0. 0. 0.
 0. 0. 0. 0.
 0. 0. 0. 0.
 0. 0. 0. 0.
 0. 0. 0. 0.
 0. 0. 0. 0.
 0. 0. 0. 0.
 0. 0. 0. 0.
 0. 0. 0. 0.
 0. 0. 0. 0.
 0. 0. 0. 0.
 0. 0. 0. 0.
 0. 0. 0. 0.
 0. 0. 0. 0.
 0. 0. 0. 0.
 0. 0. 0. 0.
 0. 0. 0. 0.
 0. 0. 0. 0.
 0. 0. 0. 0.
 0. 0. 0. 0.
 0. 0. 0. 0.
 0. 0. 0. 0.
 0. 0. 0. 0.
 0. 0. 0. 0.
 0. 0. 0. 0.
 0. 0. 0. 0.
 0. 0. 0. 0.
 0. 0. 0. 0.
 0. 0. 0. 0.
 0. 0. 0. 0.
 0. 0. 0. 0.
 0. 0. 0. 0.
 0. 0. 0. 0.
 0. 0. 0. 0.
 0. 0. 0. 0.
 0. 0. 0. 0.
 0. 0. 0. 0.
 0. 0. 0. 0.
 0. 0. 0. 0.
 0. 0. 0. 0.
 0. 0. 0. 0.
 0. 0. 0. 0.
 0. 0. 0. 0.
 0. 0. 0. 0.
 0. 0. 0. 0.
 0. 0. 0. 0.
 0. 0. 0. 0.
 0. 0. 0. 0.
 0. 0. 0. 0.
 0. 0. 0. 0.
 0. 0. 0. 0.
 0. 0. 0. 0.
 0. 0. 0. 0.
 0. 0. 0. 0.
 0. 0. 0. 0.
 0. 0. 0. 0.
 0. 0. 0. 0.
 0. 0. 0. 0.
 0. 0. 0. 0.
 0. 0. 0. 0.
 0. 0. 0. 0.
 0. 0. 0. 0.
 0. 0. 0. 0.
 0. 0. 0. 0.
 0. 0. 0. 0.
 0. 0. 0. 0.
 0. 0. 0. 0.
 0. 0. 0. 0.
 0. 0. 0. 0.
 0. 0. 0. 0.
 0. 0. 0. 0.
 0. 0. 0. 0.
 0. 0. 0. 0.
 0. 0. 0. 0.
 0. 0. 0. 0.
 0. 0. 0. 0.
 0. 0. 0. 0.
 0. 0. 0. 0.
 0. 0. 0. 0.
 0. 0. 0. 0.
 0. 0. 0. 0.
 0. 0. 0. 0.
 0. 0. 0. 0.
 0. 0. 0. 0.
 0. 0. 0. 0.
 0. 0. 0. 0.
 0. 0. 0. 0.
 0. 0. 0. 0.
 0. 0. 0. 0.
 0. 0. 0. 0.
 0. 0. 0. 0.
 0. 0. 0. 0.
 0. 0. 0. 0.
 0. 0. 0. 0.
 0. 0. 0. 0.
 0. 0. 0. 0.
 0. 0. 0. 0.
 0. 0. 0. 0.
 0. 0. 0. 0.
 0. 0. 0. 0.
 0. 0. 0. 0.
 0. 0. 0. 0.
 0. 0. 0. 0.
 0. 0. 0. 0.
 0. 0. 0. 0.
 0. 0. 0. 0.
 0. 0. 0. 0.
 0. 0. 0. 0.
 0. 0. 0. 0.
 0. 0. 0. 0.
   </PP_BETA.3>
   <PP_BETA.4
       type="real"
       size="1940"
       columns="4"
       index="4"
       angular_momentum="1"
       cutoff_radius_index=" 216"
       cutoff_radius="    2.1500000000E+00" >
   -7.0347728892E-09   -7.7638837501E-04   -3.0911221052E-03   -6.9011540919E-03
   -1.2135558781E-02   -1.8696747603E-02   -2.6462142868E-02   -3.5286282907E-02
   -4.5003324241E-02   -5.5429900017E-02   -6.6368288148E-02   -7.7609837426E-02
   -8.8938595571E-02   -1.0013507978E-01   -1.1098012782E-01   -1.2125876615E-01
   -1.3076403121E-01   -1.3930068030E-01   -1.4668873016E-01   -1.5276676378E-01
   -1.5739494951E-01   -1.6045772074E-01   -1.6186606981E-01   -1.6155941566E-01
   -1.5950701126E-01   -1.5570886435E-01   -1.5019615224E-01   -1.4303111982E-01
   -1.3430645786E-01   -1.2414416700E-01   -1.1269392133E-01   -1.0013095315E-01
   -8.6653488629E-02   -7.2479771281E-02   -5.7844717117E-02   -4.2996251409E-02
   -2.8191382579E-02   -1.3692073301E-02    2.3902739232E-04    1.3342924449E-02
    2.5368621289E-02    3.6077399514E-02    4.5246965280E-02    5.2675395246E-02
    5.8184817542E-02    6.1624766742E-02    6.2875156349E-02    6.1848817739E-02
    5.8493560776E-02    5.2793718327E-02    4.4771144566E-02    3.4485645140E-02
    2.2034825863E-02    7.5533554845E-03   -8.7883529126E-03   -2.6786028301E-02
   -4.6203973403E-02   -6.6778010578E-02   -8.8218902590E-02   -1.1021620121E-01
   -1.3244246958E-01   -1.5455781805E-01   -1.7621468762E-01   -1.9706281094E-01
   -2.1675427703E-01   -2.3494862401E-01   -2.5131788247E-01   -2.6555149246E-01
   -2.7736101796E-01   -2.8648458525E-01   -2.9269097478E-01   -2.9578330103E-01
   -2.9560222010E-01   -2.9202861155E-01   -2.8498568851E-01   -2.7444049790E-01
   -2.6040478201E-01   -2.4293518151E-01   -2.2213277009E-01   -1.9814192075E-01
   -1.7114851389E-01   -1.4137750733E-01   -1.0908989827E-01   -7.4579116505E-02
   -3.8166897297E-02   -1.9869045680E-04    3.8961330305E-02    7.8935587070E-02
    1.1933867025E-01    1.5978308331E-01    1.9988507568E-01    2.3927047806E-01
    2.7758045332E-01    3.1447707711E-01    3.4964866412E-01    3.8281475920E-01
    4.1373071727E-01    4.4219180172E-01    4.6803673805E-01    4.9115066770E-01
    5.1146745631E-01    5.2897132041E-01    5.4369774797E-01    5.5573369925E-01
    5.6521708709E-01    5.7233554771E-01    5.7732452637E-01    5.8046471503E-01
    5.8207889178E-01    5.8252822508E-01    5.8220811812E-01    5.8154368044E-01
    5.8098492617E-01    5.8100180827E-01    5.8207920862E-01    5.8471201177E-01
    5.8940039728E-01    5.9664548937E-01    6.0694550275E-01    6.2079251842E-01
    6.3867000811E-01    6.6105119888E-01    6.8839831981E-01    7.2116269161E-01
    7.5978548818E-01    8.0469879036E-01    8.5632622413E-01    9.1508196723E-01
    9.8136650317E-01    1.0556203844E+00    1.1334051865E+00    1.2010799594E+00
    1.2625919180E+00    1.3214437595E+00    1.3793075130E+00    1.4365620941E+00
    1.4927437720E+00    1.5469148408E+00    1.5979503851E+00    1.6447464846E+00
    1.6863564816E+00    1.7220648512E+00    1.7514103758E+00    1.7741714567E+00
    1.7903268595E+00    1.7999562026E+00    1.8030480209E+00    1.7995868129E+00
    1.7895882400E+00    1.7730916793E+00    1.7501588885E+00    1.7208768301E+00
    1.6853631524E+00    1.6437729643E+00    1.5963057489E+00    1.5432115270E+00
    1.4847956402E+00    1.4214217726E+00    1.3535130403E+00    1.2815511489E+00
    1.2060737436E+00    1.1276701621E+00    1.0469758453E+00    9.6466567887E-01
    8.8144653013E-01    7.9804922110E-01    7.1522014601E-01    6.3371270348E-01
    5.5427867798E-01    4.7765967190E-01    4.0457866286E-01    3.3573173913E-01
    2.7178005097E-01    2.1334200568E-01    1.6098575778E-01    1.1522035665E-01
    7.6515680631E-02    4.5365764235E-02    2.2134577213E-02    7.0819835588E-03
    4.2367352272E-04    1.6010388730E-05   -9.7696751901E-11    0.0000000000E+00
    0.0000000000E+00    0.0000000000E+00    0.0000000000E+00    0.0000000000E+00
    0.0000000000E+00    0.0000000000E+00    0.0000000000E+00    0.0000000000E+00
    0.0000000000E+00    0.0000000000E+00    0.0000000000E+00    0.0000000000E+00
    0.0000000000E+00    0.0000000000E+00    0.0000000000E+00    0.0000000000E+00
    0.0000000000E+00    0.0000000000E+00    0.0000000000E+00    0.0000000000E+00
    0.0000000000E+00    0.0000000000E+00    0.0000000000E+00    0.0000000000E+00
    0.0000000000E+00    0.0000000000E+00    0.0000000000E+00    0.0000000000E+00
    0.0000000000E+00    0.0000000000E+00    0.0000000000E+00    0.0000000000E+00
 0. 0. 0. 0.
 0. 0. 0. 0.
 0. 0. 0. 0.
 0. 0. 0. 0.
 0. 0. 0. 0.
 0. 0. 0. 0.
 0. 0. 0. 0.
 0. 0. 0. 0.
 0. 0. 0. 0.
 0. 0. 0. 0.
 0. 0. 0. 0.
 0. 0. 0. 0.
 0. 0. 0. 0.
 0. 0. 0. 0.
 0. 0. 0. 0.
 0. 0. 0. 0.
 0. 0. 0. 0.
 0. 0. 0. 0.
 0. 0. 0. 0.
 0. 0. 0. 0.
 0. 0. 0. 0.
 0. 0. 0. 0.
 0. 0. 0. 0.
 0. 0. 0. 0.
 0. 0. 0. 0.
 0. 0. 0. 0.
 0. 0. 0. 0.
 0. 0. 0. 0.
 0. 0. 0. 0.
 0. 0. 0. 0.
 0. 0. 0. 0.
 0. 0. 0. 0.
 0. 0. 0. 0.
 0. 0. 0. 0.
 0. 0. 0. 0.
 0. 0. 0. 0.
 0. 0. 0. 0.
 0. 0. 0. 0.
 0. 0. 0. 0.
 0. 0. 0. 0.
 0. 0. 0. 0.
 0. 0. 0. 0.
 0. 0. 0. 0.
 0. 0. 0. 0.
 0. 0. 0. 0.
 0. 0. 0. 0.
 0. 0. 0. 0.
 0. 0. 0. 0.
 0. 0. 0. 0.
 0. 0. 0. 0.
 0. 0. 0. 0.
 0. 0. 0. 0.
 0. 0. 0. 0.
 0. 0. 0. 0.
 0. 0. 0. 0.
 0. 0. 0. 0.
 0. 0. 0. 0.
 0. 0. 0. 0.
 0. 0. 0. 0.
 0. 0. 0. 0.
 0. 0. 0. 0.
 0. 0. 0. 0.
 0. 0. 0. 0.
 0. 0. 0. 0.
 0. 0. 0. 0.
 0. 0. 0. 0.
 0. 0. 0. 0.
 0. 0. 0. 0.
 0. 0. 0. 0.
 0. 0. 0. 0.
 0. 0. 0. 0.
 0. 0. 0. 0.
 0. 0. 0. 0.
 0. 0. 0. 0.
 0. 0. 0. 0.
 0. 0. 0. 0.
 0. 0. 0. 0.
 0. 0. 0. 0.
 0. 0. 0. 0.
 0. 0. 0. 0.
 0. 0. 0. 0.
 0. 0. 0. 0.
 0. 0. 0. 0.
 0. 0. 0. 0.
 0. 0. 0. 0.
 0. 0. 0. 0.
 0. 0. 0. 0.
 0. 0. 0. 0.
 0. 0. 0. 0.
 0. 0. 0. 0.
 0. 0. 0. 0.
 0. 0. 0. 0.
 0. 0. 0. 0.
 0. 0. 0. 0.
 0. 0. 0. 0.
 0. 0. 0. 0.
 0. 0. 0. 0.
 0. 0. 0. 0.
 0. 0. 0. 0.
 0. 0. 0. 0.
 0. 0. 0. 0.
 0. 0. 0. 0.
 0. 0. 0. 0.
 0. 0. 0. 0.
 0. 0. 0. 0.
 0. 0. 0. 0.
 0. 0. 0. 0.
 0. 0. 0. 0.
 0. 0. 0. 0.
 0. 0. 0. 0.
 0. 0. 0. 0.
 0. 0. 0. 0.
 0. 0. 0. 0.
 0. 0. 0. 0.
 0. 0. 0. 0.
 0. 0. 0. 0.
 0. 0. 0. 0.
 0. 0. 0. 0.
 0. 0. 0. 0.
 0. 0. 0. 0.
 0. 0. 0. 0.
 0. 0. 0. 0.
 0. 0. 0. 0.
 0. 0. 0. 0.
 0. 0. 0. 0.
 0. 0. 0. 0.
 0. 0. 0. 0.
 0. 0. 0. 0.
 0. 0. 0. 0.
 0. 0. 0. 0.
 0. 0. 0. 0.
 0. 0. 0. 0.
 0. 0. 0. 0.
 0. 0. 0. 0.
 0. 0. 0. 0.
 0. 0. 0. 0.
 0. 0. 0. 0.
 0. 0. 0. 0.
 0. 0. 0. 0.
 0. 0. 0. 0.
 0. 0. 0. 0.
 0. 0. 0. 0.
 0. 0. 0. 0.
 0. 0. 0. 0.
 0. 0. 0. 0.
 0. 0. 0. 0.
 0. 0. 0. 0.
 0. 0. 0. 0.
 0. 0. 0. 0.
 0. 0. 0. 0.
 0. 0. 0. 0.
 0. 0. 0. 0.
 0. 0. 0. 0.
 0. 0. 0. 0.
 0. 0. 0. 0.
 0. 0. 0. 0.
 0. 0. 0. 0.
 0. 0. 0. 0.
 0. 0. 0. 0.
 0. 0. 0. 0.
 0. 0. 0. 0.
 0. 0. 0. 0.
 0. 0. 0. 0.
 0. 0. 0. 0.
 0. 0. 0. 0.
 0. 0. 0. 0.
 0. 0. 0. 0.
 0. 0. 0. 0.
 0. 0. 0. 0.
 0. 0. 0. 0.
 0. 0. 0. 0.
 0. 0. 0. 0.
 0. 0. 0. 0.
 0. 0. 0. 0.
 0. 0. 0. 0.
 0. 0. 0. 0.
 0. 0. 0. 0.
 0. 0. 0. 0.
 0. 0. 0. 0.
 0. 0. 0. 0.
 0. 0. 0. 0.
 0. 0. 0. 0.
 0. 0. 0. 0.
 0. 0. 0. 0.
 0. 0. 0. 0.
 0. 0. 0. 0.
 0. 0. 0. 0.
 0. 0. 0. 0.
 0. 0. 0. 0.
 0. 0. 0. 0.
 0. 0. 0. 0.
 0. 0. 0. 0.
 0. 0. 0. 0.
 0. 0. 0. 0.
 0. 0. 0. 0.
 0. 0. 0. 0.
 0. 0. 0. 0.
 0. 0. 0. 0.
 0. 0. 0. 0.
 0. 0. 0. 0.
 0. 0. 0. 0.
 0. 0. 0. 0.
 0. 0. 0. 0.
 0. 0. 0. 0.
 0. 0. 0. 0.
 0. 0. 0. 0.
 0. 0. 0. 0.
 0. 0. 0. 0.
 0. 0. 0. 0.
 0. 0. 0. 0.
 0. 0. 0. 0.
 0. 0. 0. 0.
 0. 0. 0. 0.
 0. 0. 0. 0.
 0. 0. 0. 0.
 0. 0. 0. 0.
 0. 0. 0. 0.
 0. 0. 0. 0.
 0. 0. 0. 0.
 0. 0. 0. 0.
 0. 0. 0. 0.
 0. 0. 0. 0.
 0. 0. 0. 0.
 0. 0. 0. 0.
 0. 0. 0. 0.
 0. 0. 0. 0.
 0. 0. 0. 0.
 0. 0. 0. 0.
 0. 0. 0. 0.
 0. 0. 0. 0.
 0. 0. 0. 0.
 0. 0. 0. 0.
 0. 0. 0. 0.
 0. 0. 0. 0.
 0. 0. 0. 0.
 0. 0. 0. 0.
 0. 0. 0. 0.
 0. 0. 0. 0.
 0. 0. 0. 0.
 0. 0. 0. 0.
 0. 0. 0. 0.
 0. 0. 0. 0.
 0. 0. 0. 0.
 0. 0. 0. 0.
 0. 0. 0. 0.
 0. 0. 0. 0.
 0. 0. 0. 0.
 0. 0. 0. 0.
 0. 0. 0. 0.
 0. 0. 0. 0.
 0. 0. 0. 0.
 0. 0. 0. 0.
 0. 0. 0. 0.
 0. 0. 0. 0.
 0. 0. 0. 0.
 0. 0. 0. 0.
 0. 0. 0. 0.
 0. 0. 0. 0.
 0. 0. 0. 0.
 0. 0. 0. 0.
 0. 0. 0. 0.
 0. 0. 0. 0.
 0. 0. 0. 0.
 0. 0. 0. 0.
 0. 0. 0. 0.
 0. 0. 0. 0.
 0. 0. 0. 0.
 0. 0. 0. 0.
 0. 0. 0. 0.
 0. 0. 0. 0.
 0. 0. 0. 0.
 0. 0. 0. 0.
 0. 0. 0. 0.
 0. 0. 0. 0.
 0. 0. 0. 0.
 0. 0. 0. 0.
 0. 0. 0. 0.
 0. 0. 0. 0.
 0. 0. 0. 0.
 0. 0. 0. 0.
 0. 0. 0. 0.
 0. 0. 0. 0.
 0. 0. 0. 0.
 0. 0. 0. 0.
 0. 0. 0. 0.
 0. 0. 0. 0.
 0. 0. 0. 0.
 0. 0. 0. 0.
 0. 0. 0. 0.
 0. 0. 0. 0.
 0. 0. 0. 0.
 0. 0. 0. 0.
 0. 0. 0. 0.
 0. 0. 0. 0.
 0. 0. 0. 0.
 0. 0. 0. 0.
 0. 0. 0. 0.
 0. 0. 0. 0.
 0. 0. 0. 0.
 0. 0. 0. 0.
 0. 0. 0. 0.
 0. 0. 0. 0.
 0. 0. 0. 0.
 0. 0. 0. 0.
 0. 0. 0. 0.
 0. 0. 0. 0.
 0. 0. 0. 0.
 0. 0. 0. 0.
 0. 0. 0. 0.
 0. 0. 0. 0.
 0. 0. 0. 0.
 0. 0. 0. 0.
 0. 0. 0. 0.
 0. 0. 0. 0.
 0. 0. 0. 0.
 0. 0. 0. 0.
 0. 0. 0. 0.
 0. 0. 0. 0.
 0. 0. 0. 0.
 0. 0. 0. 0.
 0. 0. 0. 0.
 0. 0. 0. 0.
 0. 0. 0. 0.
 0. 0. 0. 0.
 0. 0. 0. 0.
 0. 0. 0. 0.
 0. 0. 0. 0.
 0. 0. 0. 0.
 0. 0. 0. 0.
 0. 0. 0. 0.
 0. 0. 0. 0.
 0. 0. 0. 0.
 0. 0. 0. 0.
 0. 0. 0. 0.
 0. 0. 0. 0.
 0. 0. 0. 0.
 0. 0. 0. 0.
 0. 0. 0. 0.
 0. 0. 0. 0.
 0. 0. 0. 0.
 0. 0. 0. 0.
 0. 0. 0. 0.
 0. 0. 0. 0.
 0. 0. 0. 0.
 0. 0. 0. 0.
 0. 0. 0. 0.
 0. 0. 0. 0.
 0. 0. 0. 0.
 0. 0. 0. 0.
 0. 0. 0. 0.
 0. 0. 0. 0.
 0. 0. 0. 0.
 0. 0. 0. 0.
 0. 0. 0. 0.
 0. 0. 0. 0.
 0. 0. 0. 0.
 0. 0. 0. 0.
 0. 0. 0. 0.
 0. 0. 0. 0.
 0. 0. 0. 0.
 0. 0. 0. 0.
 0. 0. 0. 0.
 0. 0. 0. 0.
 0. 0. 0. 0.
 0. 0. 0. 0.
 0. 0. 0. 0.
 0. 0. 0. 0.
 0. 0. 0. 0.
 0. 0. 0. 0.
 0. 0. 0. 0.
 0. 0. 0. 0.
 0. 0. 0. 0.
 0. 0. 0. 0.
 0. 0. 0. 0.
 0. 0. 0. 0.
 0. 0. 0. 0.
 0. 0. 0. 0.
 0. 0. 0. 0.
 0. 0. 0. 0.
 0. 0. 0. 0.
 0. 0. 0. 0.
 0. 0. 0. 0.
 0. 0. 0. 0.
 0. 0. 0. 0.
 0. 0. 0. 0.
 0. 0. 0. 0.
 0. 0. 0. 0.
 0. 0. 0. 0.
 0. 0. 0. 0.
 0. 0. 0. 0.
 0. 0. 0. 0.
 0. 0. 0. 0.
 0. 0. 0. 0.
 0. 0. 0. 0.
 0. 0. 0. 0.
 0. 0. 0. 0.
 0. 0. 0. 0.
 0. 0. 0. 0.
 0. 0. 0. 0.
 0. 0. 0. 0.
 0. 0. 0. 0.
 0. 0. 0. 0.
 0. 0. 0. 0.
 0. 0. 0. 0.
 0. 0. 0. 0.
 0. 0. 0. 0.
 0. 0. 0. 0.
 0. 0. 0. 0.
 0. 0. 0. 0.
 0. 0. 0. 0.
 0. 0. 0. 0.
 0. 0. 0. 0.
 0. 0. 0. 0.
 0. 0. 0. 0.
 0. 0. 0. 0.
 0. 0. 0. 0.
 0. 0. 0. 0.
 0. 0. 0. 0.
 0. 0. 0. 0.
 0. 0. 0. 0.
 0. 0. 0. 0.
 0. 0. 0. 0.
 0. 0. 0. 0.
 0. 0. 0. 0.
 0. 0. 0. 0.
 0. 0. 0. 0.
 0. 0. 0. 0.
 0. 0. 0. 0.
 0. 0. 0. 0.
 0. 0. 0. 0.
 0. 0. 0. 0.
   </PP_BETA.4>
   <PP_BETA.5
       type="real"
       size="1940"
       columns="4"
       index="5"
       angular_momentum="2"
       cutoff_radius_index=" 216"
       cutoff_radius="    2.1500000000E+00" >
   -1.3634934320E-08   -3.6163859958E-05   -2.8796728656E-04   -9.6436662200E-04
   -2.2611130807E-03   -4.3545498900E-03   -7.3958790763E-03   -1.1506038011E-02
   -1.6771312192E-02   -2.3239794249E-02   -3.0918780180E-02   -3.9773172730E-02
   -4.9724939112E-02   -6.0653646404E-02   -7.2398073434E-02   -8.4758873348E-02
   -9.7502236896E-02   -1.1036448321E-01   -1.2305748308E-01   -1.3527479998E-01
   -1.4669841650E-01   -1.5700589939E-01   -1.6587784466E-01   -1.7300543616E-01
   -1.7809794642E-01   -1.8089000764E-01   -1.8114848357E-01   -1.7867877974E-01
   -1.7333043954E-01   -1.6500188744E-01   -1.5364419733E-01   -1.3926378371E-01
   -1.2192393540E-01   -1.0174513566E-01   -7.8904138060E-02   -5.3631794124E-02
   -2.6209655604E-02    3.0345988390E-03    3.3732836663E-02    6.5483143506E-02
    9.7857370533E-02    1.3040941262E-01    1.6268405500E-01    1.9422621125E-01
    2.2459036422E-01    2.5335001425E-01    2.8010693537E-01    3.0450004120E-01
    3.2621366682E-01    3.4498508225E-01    3.6061106577E-01    3.7295338240E-01
    3.8194303262E-01    3.8758316021E-01    3.8995053342E-01    3.8919554223E-01
    3.8554068370E-01    3.7927753837E-01    3.7076227147E-01    3.6040972364E-01
    3.4868618565E-01    3.3610098020E-01    3.2319700002E-01    3.1054037526E-01
    2.9870946369E-01    2.8828337392E-01    2.7983024493E-01    2.7389551348E-01
    2.7099040507E-01    2.7158088326E-01    2.7607728674E-01    2.8482487315E-01
    2.9809547424E-01    3.1608044743E-01    3.3888508603E-01    3.6652462379E-01
    3.9892193935E-01    4.3590703423E-01    4.7721832359E-01    5.2250574353E-01
    5.7133564251E-01    6.2319738894E-01    6.7751159129E-01    7.3363979409E-01
    7.9089548154E-01    8.4855619239E-01    9.0587652438E-01    9.6210178628E-01
    1.0164820387E+00    1.0682862535E+00    1.1168163157E+00    1.1614205898E+00
    1.2015067788E+00    1.2365538110E+00    1.2661225095E+00    1.2898648140E+00
    1.3075313546E+00    1.3189772029E+00    1.3241656619E+00    1.3231699891E+00
    1.3161729883E+00    1.3034644464E+00    1.2854364305E+00    1.2625765054E+00
    1.2354589693E+00    1.2047342493E+00    1.1711166315E+00    1.1353705367E+00
    1.0982955851E+00    1.0607107157E+00    1.0234376513E+00    9.8728401351E-01
    9.5302640282E-01    9.2139376345E-01    8.9305134951E-01    8.6858560105E-01
    8.4849022389E-01    8.3315374681E-01    8.2284880416E-01    8.1772336186E-01
    8.1779407154E-01    8.2294190244E-01    8.3291016563E-01    8.4730501405E-01
    8.6559847772E-01    8.8713408407E-01    9.1113512643E-01    9.3671569439E-01
    9.6289460625E-01    9.8859896593E-01    1.0137352817E+00    1.0401941900E+00
    1.0660778930E+00    1.0895102974E+00    1.1089824196E+00    1.1232758746E+00
    1.1313957615E+00    1.1325156156E+00    1.1259371253E+00    1.1110653995E+00
    1.0873988334E+00    1.0545312147E+00    1.0121627778E+00    9.6011651299E-01
    8.9835603444E-01    8.2701224702E-01    7.4642626305E-01    6.5712822858E-01
    5.5982317799E-01    4.5538244208E-01    3.4483041415E-01    2.2932745063E-01
    1.1014960345E-01   -1.1334136011E-02   -1.3368643699E-01   -2.5542747082E-01
   -3.7506143292E-01   -4.9110322217E-01   -6.0210478836E-01   -7.0668068982E-01
   -8.0353243451E-01   -8.9147121021E-01   -9.6943864469E-01   -1.0365252750E+00
   -1.0919864463E+00   -1.1352554038E+00   -1.1659533872E+00   -1.1838965817E+00
   -1.1890998255E+00   -1.1817770195E+00   -1.1623382276E+00   -1.1313834996E+00
   -1.0896934908E+00   -1.0382169906E+00   -9.7805552653E-01   -9.1044450313E-01
   -8.3674466991E-01   -7.5845459710E-01   -6.7712157562E-01   -5.9432529330E-01
   -5.1166221996E-01   -4.3071223109E-01   -3.5300765160E-01   -2.8002199906E-01
   -2.1313911752E-01   -1.5362800069E-01   -1.0262090624E-01   -6.1093700049E-02
   -2.9848855525E-02   -9.5049490274E-03   -5.5404254057E-04   -2.2174055525E-05
    5.5680682250E-08    0.0000000000E+00    0.0000000000E+00    0.0000000000E+00
    0.0000000000E+00    0.0000000000E+00    0.0000000000E+00    0.0000000000E+00
    0.0000000000E+00    0.0000000000E+00    0.0000000000E+00    0.0000000000E+00
    0.0000000000E+00    0.0000000000E+00    0.0000000000E+00    0.0000000000E+00
    0.0000000000E+00    0.0000000000E+00    0.0000000000E+00    0.0000000000E+00
    0.0000000000E+00    0.0000000000E+00    0.0000000000E+00    0.0000000000E+00
 0. 0. 0. 0.
 0. 0. 0. 0.
 0. 0. 0. 0.
 0. 0. 0. 0.
 0. 0. 0. 0.
 0. 0. 0. 0.
 0. 0. 0. 0.
 0. 0. 0. 0.
 0. 0. 0. 0.
 0. 0. 0. 0.
 0. 0. 0. 0.
 0. 0. 0. 0.
 0. 0. 0. 0.
 0. 0. 0. 0.
 0. 0. 0. 0.
 0. 0. 0. 0.
 0. 0. 0. 0.
 0. 0. 0. 0.
 0. 0. 0. 0.
 0. 0. 0. 0.
 0. 0. 0. 0.
 0. 0. 0. 0.
 0. 0. 0. 0.
 0. 0. 0. 0.
 0. 0. 0. 0.
 0. 0. 0. 0.
 0. 0. 0. 0.
 0. 0. 0. 0.
 0. 0. 0. 0.
 0. 0. 0. 0.
 0. 0. 0. 0.
 0. 0. 0. 0.
 0. 0. 0. 0.
 0. 0. 0. 0.
 0. 0. 0. 0.
 0. 0. 0. 0.
 0. 0. 0. 0.
 0. 0. 0. 0.
 0. 0. 0. 0.
 0. 0. 0. 0.
 0. 0. 0. 0.
 0. 0. 0. 0.
 0. 0. 0. 0.
 0. 0. 0. 0.
 0. 0. 0. 0.
 0. 0. 0. 0.
 0. 0. 0. 0.
 0. 0. 0. 0.
 0. 0. 0. 0.
 0. 0. 0. 0.
 0. 0. 0. 0.
 0. 0. 0. 0.
 0. 0. 0. 0.
 0. 0. 0. 0.
 0. 0. 0. 0.
 0. 0. 0. 0.
 0. 0. 0. 0.
 0. 0. 0. 0.
 0. 0. 0. 0.
 0. 0. 0. 0.
 0. 0. 0. 0.
 0. 0. 0. 0.
 0. 0. 0. 0.
 0. 0. 0. 0.
 0. 0. 0. 0.
 0. 0. 0. 0.
 0. 0. 0. 0.
 0. 0. 0. 0.
 0. 0. 0. 0.
 0. 0. 0. 0.
 0. 0. 0. 0.
 0. 0. 0. 0.
 0. 0. 0. 0.
 0. 0. 0. 0.
 0. 0. 0. 0.
 0. 0. 0. 0.
 0. 0. 0. 0.
 0. 0. 0. 0.
 0. 0. 0. 0.
 0. 0. 0. 0.
 0. 0. 0. 0.
 0. 0. 0. 0.
 0. 0. 0. 0.
 0. 0. 0. 0.
 0. 0. 0. 0.
 0. 0. 0. 0.
 0. 0. 0. 0.
 0. 0. 0. 0.
 0. 0. 0. 0.
 0. 0. 0. 0.
 0. 0. 0. 0.
 0. 0. 0. 0.
 0. 0. 0. 0.
 0. 0. 0. 0.
 0. 0. 0. 0.
 0. 0. 0. 0.
 0. 0. 0. 0.
 0. 0. 0. 0.
 0. 0. 0. 0.
 0. 0. 0. 0.
 0. 0. 0. 0.
 0. 0. 0. 0.
 0. 0. 0. 0.
 0. 0. 0. 0.
 0. 0. 0. 0.
 0. 0. 0. 0.
 0. 0. 0. 0.
 0. 0. 0. 0.
 0. 0. 0. 0.
 0. 0. 0. 0.
 0. 0. 0. 0.
 0. 0. 0. 0.
 0. 0. 0. 0.
 0. 0. 0. 0.
 0. 0. 0. 0.
 0. 0. 0. 0.
 0. 0. 0. 0.
 0. 0. 0. 0.
 0. 0. 0. 0.
 0. 0. 0. 0.
 0. 0. 0. 0.
 0. 0. 0. 0.
 0. 0. 0. 0.
 0. 0. 0. 0.
 0. 0. 0. 0.
 0. 0. 0. 0.
 0. 0. 0. 0.
 0. 0. 0. 0.
 0. 0. 0. 0.
 0. 0. 0. 0.
 0. 0. 0. 0.
 0. 0. 0. 0.
 0. 0. 0. 0.
 0. 0. 0. 0.
 0. 0. 0. 0.
 0. 0. 0. 0.
 0. 0. 0. 0.
 0. 0. 0. 0.
 0. 0. 0. 0.
 0. 0. 0. 0.
 0. 0. 0. 0.
 0. 0. 0. 0.
 0. 0. 0. 0.
 0. 0. 0. 0.
 0. 0. 0. 0.
 0. 0. 0. 0.
 0. 0. 0. 0.
 0. 0. 0. 0.
 0. 0. 0. 0.
 0. 0. 0. 0.
 0. 0. 0. 0.
 0. 0. 0. 0.
 0. 0. 0. 0.
 0. 0. 0. 0.
 0. 0. 0. 0.
 0. 0. 0. 0.
 0. 0. 0. 0.
 0. 0. 0. 0.
 0. 0. 0. 0.
 0. 0. 0. 0.
 0. 0. 0. 0.
 0. 0. 0. 0.
 0. 0. 0. 0.
 0. 0. 0. 0.
 0. 0. 0. 0.
 0. 0. 0. 0.
 0. 0. 0. 0.
 0. 0. 0. 0.
 0. 0. 0. 0.
 0. 0. 0. 0.
 0. 0. 0. 0.
 0. 0. 0. 0.
 0. 0. 0. 0.
 0. 0. 0. 0.
 0. 0. 0. 0.
 0. 0. 0. 0.
 0. 0. 0. 0.
 0. 0. 0. 0.
 0. 0. 0. 0.
 0. 0. 0. 0.
 0. 0. 0. 0.
 0. 0. 0. 0.
 0. 0. 0. 0.
 0. 0. 0. 0.
 0. 0. 0. 0.
 0. 0. 0. 0.
 0. 0. 0. 0.
 0. 0. 0. 0.
 0. 0. 0. 0.
 0. 0. 0. 0.
 0. 0. 0. 0.
 0. 0. 0. 0.
 0. 0. 0. 0.
 0. 0. 0. 0.
 0. 0. 0. 0.
 0. 0. 0. 0.
 0. 0. 0. 0.
 0. 0. 0. 0.
 0. 0. 0. 0.
 0. 0. 0. 0.
 0. 0. 0. 0.
 0. 0. 0. 0.
 0. 0. 0. 0.
 0. 0. 0. 0.
 0. 0. 0. 0.
 0. 0. 0. 0.
 0. 0. 0. 0.
 0. 0. 0. 0.
 0. 0. 0. 0.
 0. 0. 0. 0.
 0. 0. 0. 0.
 0. 0. 0. 0.
 0. 0. 0. 0.
 0. 0. 0. 0.
 0. 0. 0. 0.
 0. 0. 0. 0.
 0. 0. 0. 0.
 0. 0. 0. 0.
 0. 0. 0. 0.
 0. 0. 0. 0.
 0. 0. 0. 0.
 0. 0. 0. 0.
 0. 0. 0. 0.
 0. 0. 0. 0.
 0. 0. 0. 0.
 0. 0. 0. 0.
 0. 0. 0. 0.
 0. 0. 0. 0.
 0. 0. 0. 0.
 0. 0. 0. 0.
 0. 0. 0. 0.
 0. 0. 0. 0.
 0. 0. 0. 0.
 0. 0. 0. 0.
 0. 0. 0. 0.
 0. 0. 0. 0.
 0. 0. 0. 0.
 0. 0. 0. 0.
 0. 0. 0. 0.
 0. 0. 0. 0.
 0. 0. 0. 0.
 0. 0. 0. 0.
 0. 0. 0. 0.
 0. 0. 0. 0.
 0. 0. 0. 0.
 0. 0. 0. 0.
 0. 0. 0. 0.
 0. 0. 0. 0.
 0. 0. 0. 0.
 0. 0. 0. 0.
 0. 0. 0. 0.
 0. 0. 0. 0.
 0. 0. 0. 0.
 0. 0. 0. 0.
 0. 0. 0. 0.
 0. 0. 0. 0.
 0. 0. 0. 0.
 0. 0. 0. 0.
 0. 0. 0. 0.
 0. 0. 0. 0.
 0. 0. 0. 0.
 0. 0. 0. 0.
 0. 0. 0. 0.
 0. 0. 0. 0.
 0. 0. 0. 0.
 0. 0. 0. 0.
 0. 0. 0. 0.
 0. 0. 0. 0.
 0. 0. 0. 0.
 0. 0. 0. 0.
 0. 0. 0. 0.
 0. 0. 0. 0.
 0. 0. 0. 0.
 0. 0. 0. 0.
 0. 0. 0. 0.
 0. 0. 0. 0.
 0. 0. 0. 0.
 0. 0. 0. 0.
 0. 0. 0. 0.
 0. 0. 0. 0.
 0. 0. 0. 0.
 0. 0. 0. 0.
 0. 0. 0. 0.
 0. 0. 0. 0.
 0. 0. 0. 0.
 0. 0. 0. 0.
 0. 0. 0. 0.
 0. 0. 0. 0.
 0. 0. 0. 0.
 0. 0. 0. 0.
 0. 0. 0. 0.
 0. 0. 0. 0.
 0. 0. 0. 0.
 0. 0. 0. 0.
 0. 0. 0. 0.
 0. 0. 0. 0.
 0. 0. 0. 0.
 0. 0. 0. 0.
 0. 0. 0. 0.
 0. 0. 0. 0.
 0. 0. 0. 0.
 0. 0. 0. 0.
 0. 0. 0. 0.
 0. 0. 0. 0.
 0. 0. 0. 0.
 0. 0. 0. 0.
 0. 0. 0. 0.
 0. 0. 0. 0.
 0. 0. 0. 0.
 0. 0. 0. 0.
 0. 0. 0. 0.
 0. 0. 0. 0.
 0. 0. 0. 0.
 0. 0. 0. 0.
 0. 0. 0. 0.
 0. 0. 0. 0.
 0. 0. 0. 0.
 0. 0. 0. 0.
 0. 0. 0. 0.
 0. 0. 0. 0.
 0. 0. 0. 0.
 0. 0. 0. 0.
 0. 0. 0. 0.
 0. 0. 0. 0.
 0. 0. 0. 0.
 0. 0. 0. 0.
 0. 0. 0. 0.
 0. 0. 0. 0.
 0. 0. 0. 0.
 0. 0. 0. 0.
 0. 0. 0. 0.
 0. 0. 0. 0.
 0. 0. 0. 0.
 0. 0. 0. 0.
 0. 0. 0. 0.
 0. 0. 0. 0.
 0. 0. 0. 0.
 0. 0. 0. 0.
 0. 0. 0. 0.
 0. 0. 0. 0.
 0. 0. 0. 0.
 0. 0. 0. 0.
 0. 0. 0. 0.
 0. 0. 0. 0.
 0. 0. 0. 0.
 0. 0. 0. 0.
 0. 0. 0. 0.
 0. 0. 0. 0.
 0. 0. 0. 0.
 0. 0. 0. 0.
 0. 0. 0. 0.
 0. 0. 0. 0.
 0. 0. 0. 0.
 0. 0. 0. 0.
 0. 0. 0. 0.
 0. 0. 0. 0.
 0. 0. 0. 0.
 0. 0. 0. 0.
 0. 0. 0. 0.
 0. 0. 0. 0.
 0. 0. 0. 0.
 0. 0. 0. 0.
 0. 0. 0. 0.
 0. 0. 0. 0.
 0. 0. 0. 0.
 0. 0. 0. 0.
 0. 0. 0. 0.
 0. 0. 0. 0.
 0. 0. 0. 0.
 0. 0. 0. 0.
 0. 0. 0. 0.
 0. 0. 0. 0.
 0. 0. 0. 0.
 0. 0. 0. 0.
 0. 0. 0. 0.
 0. 0. 0. 0.
 0. 0. 0. 0.
 0. 0. 0. 0.
 0. 0. 0. 0.
 0. 0. 0. 0.
 0. 0. 0. 0.
 0. 0. 0. 0.
 0. 0. 0. 0.
 0. 0. 0. 0.
 0. 0. 0. 0.
 0. 0. 0. 0.
 0. 0. 0. 0.
 0. 0. 0. 0.
 0. 0. 0. 0.
 0. 0. 0. 0.
 0. 0. 0. 0.
 0. 0. 0. 0.
 0. 0. 0. 0.
 0. 0. 0. 0.
 0. 0. 0. 0.
 0. 0. 0. 0.
 0. 0. 0. 0.
 0. 0. 0. 0.
 0. 0. 0. 0.
 0. 0. 0. 0.
 0. 0. 0. 0.
 0. 0. 0. 0.
 0. 0. 0. 0.
 0. 0. 0. 0.
 0. 0. 0. 0.
 0. 0. 0. 0.
 0. 0. 0. 0.
 0. 0. 0. 0.
 0. 0. 0. 0.
 0. 0. 0. 0.
 0. 0. 0. 0.
 0. 0. 0. 0.
 0. 0. 0. 0.
 0. 0. 0. 0.
 0. 0. 0. 0.
 0. 0. 0. 0.
 0. 0. 0. 0.
 0. 0. 0. 0.
 0. 0. 0. 0.
 0. 0. 0. 0.
 0. 0. 0. 0.
 0. 0. 0. 0.
 0. 0. 0. 0.
 0. 0. 0. 0.
 0. 0. 0. 0.
 0. 0. 0. 0.
 0. 0. 0. 0.
 0. 0. 0. 0.
 0. 0. 0. 0.
 0. 0. 0. 0.
 0. 0. 0. 0.
   </PP_BETA.5>
   <PP_BETA.6
       type="real"
       size="1940"
       columns="4"
       index="6"
       angular_momentum="2"
       cutoff_radius_index=" 216"
       cutoff_radius="    2.1500000000E+00" >
    1.3721145765E-08    3.7645647182E-05    2.9984164595E-04    1.0045553044E-03
    2.3567485669E-03    4.5422735167E-03    7.7222356344E-03    1.2027964186E-02
    1.7556715391E-02    2.4368217444E-02    3.2482147339E-02    4.1876608302E-02
    5.2487653753E-02    6.4209879793E-02    7.6898083612E-02    9.0369960518E-02
    1.0440978813E-01    1.1877302299E-01    1.3319171319E-01    1.4738061081E-01
    1.6104385081E-01    1.7388204824E-01    1.8559965479E-01    1.9591240729E-01
    2.0455469693E-01    2.1128668722E-01    2.1590101208E-01    2.1822889250E-01
    2.1814552081E-01    2.1557457578E-01    2.1049174889E-01    2.0292718254E-01
    1.9296674294E-01    1.8075207551E-01    1.6647941603E-01    1.5039715797E-01
    1.3280220342E-01    1.1403515217E-01    9.4474409585E-02    7.4529318764E-02
    5.4632445287E-02    3.5231163543E-02    1.6778711008E-02   -2.7510870083E-04
   -1.5493382521E-02   -2.8461506146E-02   -3.8796362779E-02   -4.6155063003E-02
   -5.0243052073E-02   -5.0821400842E-02   -4.7713110412E-02   -4.0808278327E-02
   -3.0067995214E-02   -1.5526864999E-02    2.7059313743E-03    2.4447079943E-02
    4.9441106238E-02    7.7363865843E-02    1.0782751094E-01    1.4038685962E-01
    1.7454706451E-01    2.0977244885E-01    2.4549635174E-01    2.8113180106E-01
    3.1608281232E-01    3.4975609543E-01    3.8157293961E-01    4.1098103851E-01
    4.3746601539E-01    4.6056240977E-01    4.7986389389E-01    4.9503249912E-01
    5.0580664862E-01    5.1200781316E-01    5.1354563185E-01    5.1042136759E-01
    5.0272959851E-01    4.9065808032E-01    4.7448575011E-01    4.5457887912E-01
    4.3138541863E-01    4.0542762071E-01    3.7729305068E-01    3.4762414256E-01
    3.1710648017E-01    2.8645601503E-01    2.5640545652E-01    2.2769009054E-01
    2.0103329796E-01    1.7713205510E-01    1.5664270277E-01    1.4016727060E-01
    1.2824063650E-01    1.2131878947E-01    1.1976844666E-01    1.2385825311E-01
    1.3375176501E-01    1.4950238603E-01    1.7105039040E-01    1.9822212827E-01
    2.3073146749E-01    2.6818348344E-01    3.1008036530E-01    3.5582946326E-01
    4.0475335892E-01    4.5610180021E-01    5.0906530375E-01    5.6279019265E-01
    6.1639480692E-01    6.6898659741E-01    7.1967979332E-01    7.6761331837E-01
    8.1196862162E-01    8.5198708659E-01    8.8698668599E-01    9.1637755993E-01
    9.3967621184E-01    9.5651803827E-01    9.6666793619E-01    9.7002876180E-01
    9.6664744864E-01    9.5671862593E-01    9.4058560924E-01    9.1873865932E-01
    8.9181041638E-01    8.6056840677E-01    8.2590447469E-01    7.8882089542E-01
    7.5041289104E-01    7.1187066447E-01    6.7266140059E-01    6.2908438451E-01
    5.8403321593E-01    5.4019945987E-01    4.9956135651E-01    4.6358021197E-01
    4.3335878990E-01    4.0976299190E-01    3.9350723054E-01    3.8520617001E-01
    3.8539746573E-01    3.9454158342E-01    4.1300554336E-01    4.4103746507E-01
    4.7873830054E-01    5.2602075500E-01    5.8254731297E-01    6.4776414107E-01
    7.2092096843E-01    8.0108137355E-01    8.8713885265E-01    9.7783746866E-01
    1.0717960625E+00    1.1675350915E+00    1.2635052605E+00    1.3581172090E+00
    1.4497716125E+00    1.5368891243E+00    1.6179396491E+00    1.6914704839E+00
    1.7561329046E+00    1.8107068085E+00    1.8541230615E+00    1.8854832331E+00
    1.9040764389E+00    1.9093930544E+00    1.9011351044E+00    1.8792231771E+00
    1.8437997604E+00    1.7952289437E+00    1.7340924760E+00    1.6611822197E+00
    1.5774890866E+00    1.4841885904E+00    1.3826232102E+00    1.2742810904E+00
    1.1607842438E+00    1.0438940052E+00    9.2542027469E-01    8.0720321845E-01
    6.9109394371E-01    5.7891860420E-01    4.7244568406E-01    3.7337031631E-01
    2.8328084414E-01    2.0363112351E-01    1.3571622958E-01    8.0650697623E-02
    3.9349732181E-02    1.2518361360E-02    7.2926754213E-04    2.9185806585E-05
   -7.3303752228E-08    0.0000000000E+00    0.0000000000E+00    0.0000000000E+00
    0.0000000000E+00    0.0000000000E+00    0.0000000000E+00    0.0000000000E+00
    0.0000000000E+00    0.0000000000E+00    0.0000000000E+00    0.0000000000E+00
    0.0000000000E+00    0.0000000000E+00    0.0000000000E+00    0.0000000000E+00
    0.0000000000E+00    0.0000000000E+00    0.0000000000E+00    0.0000000000E+00
    0.0000000000E+00    0.0000000000E+00    0.0000000000E+00    0.0000000000E+00
 0. 0. 0. 0.
 0. 0. 0. 0.
 0. 0. 0. 0.
 0. 0. 0. 0.
 0. 0. 0. 0.
 0. 0. 0. 0.
 0. 0. 0. 0.
 0. 0. 0. 0.
 0. 0. 0. 0.
 0. 0. 0. 0.
 0. 0. 0. 0.
 0. 0. 0. 0.
 0. 0. 0. 0.
 0. 0. 0. 0.
 0. 0. 0. 0.
 0. 0. 0. 0.
 0. 0. 0. 0.
 0. 0. 0. 0.
 0. 0. 0. 0.
 0. 0. 0. 0.
 0. 0. 0. 0.
 0. 0. 0. 0.
 0. 0. 0. 0.
 0. 0. 0. 0.
 0. 0. 0. 0.
 0. 0. 0. 0.
 0. 0. 0. 0.
 0. 0. 0. 0.
 0. 0. 0. 0.
 0. 0. 0. 0.
 0. 0. 0. 0.
 0. 0. 0. 0.
 0. 0. 0. 0.
 0. 0. 0. 0.
 0. 0. 0. 0.
 0. 0. 0. 0.
 0. 0. 0. 0.
 0. 0. 0. 0.
 0. 0. 0. 0.
 0. 0. 0. 0.
 0. 0. 0. 0.
 0. 0. 0. 0.
 0. 0. 0. 0.
 0. 0. 0. 0.
 0. 0. 0. 0.
 0. 0. 0. 0.
 0. 0. 0. 0.
 0. 0. 0. 0.
 0. 0. 0. 0.
 0. 0. 0. 0.
 0. 0. 0. 0.
 0. 0. 0. 0.
 0. 0. 0. 0.
 0. 0. 0. 0.
 0. 0. 0. 0.
 0. 0. 0. 0.
 0. 0. 0. 0.
 0. 0. 0. 0.
 0. 0. 0. 0.
 0. 0. 0. 0.
 0. 0. 0. 0.
 0. 0. 0. 0.
 0. 0. 0. 0.
 0. 0. 0. 0.
 0. 0. 0. 0.
 0. 0. 0. 0.
 0. 0. 0. 0.
 0. 0. 0. 0.
 0. 0. 0. 0.
 0. 0. 0. 0.
 0. 0. 0. 0.
 0. 0. 0. 0.
 0. 0. 0. 0.
 0. 0. 0. 0.
 0. 0. 0. 0.
 0. 0. 0. 0.
 0. 0. 0. 0.
 0. 0. 0. 0.
 0. 0. 0. 0.
 0. 0. 0. 0.
 0. 0. 0. 0.
 0. 0. 0. 0.
 0. 0. 0. 0.
 0. 0. 0. 0.
 0. 0. 0. 0.
 0. 0. 0. 0.
 0. 0. 0. 0.
 0. 0. 0. 0.
 0. 0. 0. 0.
 0. 0. 0. 0.
 0. 0. 0. 0.
 0. 0. 0. 0.
 0. 0. 0. 0.
 0. 0. 0. 0.
 0. 0. 0. 0.
 0. 0. 0. 0.
 0. 0. 0. 0.
 0. 0. 0. 0.
 0. 0. 0. 0.
 0. 0. 0. 0.
 0. 0. 0. 0.
 0. 0. 0. 0.
 0. 0. 0. 0.
 0. 0. 0. 0.
 0. 0. 0. 0.
 0. 0. 0. 0.
 0. 0. 0. 0.
 0. 0. 0. 0.
 0. 0. 0. 0.
 0. 0. 0. 0.
 0. 0. 0. 0.
 0. 0. 0. 0.
 0. 0. 0. 0.
 0. 0. 0. 0.
 0. 0. 0. 0.
 0. 0. 0. 0.
 0. 0. 0. 0.
 0. 0. 0. 0.
 0. 0. 0. 0.
 0. 0. 0. 0.
 0. 0. 0. 0.
 0. 0. 0. 0.
 0. 0. 0. 0.
 0. 0. 0. 0.
 0. 0. 0. 0.
 0. 0. 0. 0.
 0. 0. 0. 0.
 0. 0. 0. 0.
 0. 0. 0. 0.
 0. 0. 0. 0.
 0. 0. 0. 0.
 0. 0. 0. 0.
 0. 0. 0. 0.
 0. 0. 0. 0.
 0. 0. 0. 0.
 0. 0. 0. 0.
 0. 0. 0. 0.
 0. 0. 0. 0.
 0. 0. 0. 0.
 0. 0. 0. 0.
 0. 0. 0. 0.
 0. 0. 0. 0.
 0. 0. 0. 0.
 0. 0. 0. 0.
 0. 0. 0. 0.
 0. 0. 0. 0.
 0. 0. 0. 0.
 0. 0. 0. 0.
 0. 0. 0. 0.
 0. 0. 0. 0.
 0. 0. 0. 0.
 0. 0. 0. 0.
 0. 0. 0. 0.
 0. 0. 0. 0.
 0. 0. 0. 0.
 0. 0. 0. 0.
 0. 0. 0. 0.
 0. 0. 0. 0.
 0. 0. 0. 0.
 0. 0. 0. 0.
 0. 0. 0. 0.
 0. 0. 0. 0.
 0. 0. 0. 0.
 0. 0. 0. 0.
 0. 0. 0. 0.
 0. 0. 0. 0.
 0. 0. 0. 0.
 0. 0. 0. 0.
 0. 0. 0. 0.
 0. 0. 0. 0.
 0. 0. 0. 0.
 0. 0. 0. 0.
 0. 0. 0. 0.
 0. 0. 0. 0.
 0. 0. 0. 0.
 0. 0. 0. 0.
 0. 0. 0. 0.
 0. 0. 0. 0.
 0. 0. 0. 0.
 0. 0. 0. 0.
 0. 0. 0. 0.
 0. 0. 0. 0.
 0. 0. 0. 0.
 0. 0. 0. 0.
 0. 0. 0. 0.
 0. 0. 0. 0.
 0. 0. 0. 0.
 0. 0. 0. 0.
 0. 0. 0. 0.
 0. 0. 0. 0.
 0. 0. 0. 0.
 0. 0. 0. 0.
 0. 0. 0. 0.
 0. 0. 0. 0.
 0. 0. 0. 0.
 0. 0. 0. 0.
 0. 0. 0. 0.
 0. 0. 0. 0.
 0. 0. 0. 0.
 0. 0. 0. 0.
 0. 0. 0. 0.
 0. 0. 0. 0.
 0. 0. 0. 0.
 0. 0. 0. 0.
 0. 0. 0. 0.
 0. 0. 0. 0.
 0. 0. 0. 0.
 0. 0. 0. 0.
 0. 0. 0. 0.
 0. 0. 0. 0.
 0. 0. 0. 0.
 0. 0. 0. 0.
 0. 0. 0. 0.
 0. 0. 0. 0.
 0. 0. 0. 0.
 0. 0. 0. 0.
 0. 0. 0. 0.
 0. 0. 0. 0.
 0. 0. 0. 0.
 0. 0. 0. 0.
 0. 0. 0. 0.
 0. 0. 0. 0.
 0. 0. 0. 0.
 0. 0. 0. 0.
 0. 0. 0. 0.
 0. 0. 0. 0.
 0. 0. 0. 0.
 0. 0. 0. 0.
 0. 0. 0. 0.
 0. 0. 0. 0.
 0. 0. 0. 0.
 0. 0. 0. 0.
 0. 0. 0. 0.
 0. 0. 0. 0.
 0. 0. 0. 0.
 0. 0. 0. 0.
 0. 0. 0. 0.
 0. 0. 0. 0.
 0. 0. 0. 0.
 0. 0. 0. 0.
 0. 0. 0. 0.
 0. 0. 0. 0.
 0. 0. 0. 0.
 0. 0. 0. 0.
 0. 0. 0. 0.
 0. 0. 0. 0.
 0. 0. 0. 0.
 0. 0. 0. 0.
 0. 0. 0. 0.
 0. 0. 0. 0.
 0. 0. 0. 0.
 0. 0. 0. 0.
 0. 0. 0. 0.
 0. 0. 0. 0.
 0. 0. 0. 0.
 0. 0. 0. 0.
 0. 0. 0. 0.
 0. 0. 0. 0.
 0. 0. 0. 0.
 0. 0. 0. 0.
 0. 0. 0. 0.
 0. 0. 0. 0.
 0. 0. 0. 0.
 0. 0. 0. 0.
 0. 0. 0. 0.
 0. 0. 0. 0.
 0. 0. 0. 0.
 0. 0. 0. 0.
 0. 0. 0. 0.
 0. 0. 0. 0.
 0. 0. 0. 0.
 0. 0. 0. 0.
 0. 0. 0. 0.
 0. 0. 0. 0.
 0. 0. 0. 0.
 0. 0. 0. 0.
 0. 0. 0. 0.
 0. 0. 0. 0.
 0. 0. 0. 0.
 0. 0. 0. 0.
 0. 0. 0. 0.
 0. 0. 0. 0.
 0. 0. 0. 0.
 0. 0. 0. 0.
 0. 0. 0. 0.
 0. 0. 0. 0.
 0. 0. 0. 0.
 0. 0. 0. 0.
 0. 0. 0. 0.
 0. 0. 0. 0.
 0. 0. 0. 0.
 0. 0. 0. 0.
 0. 0. 0. 0.
 0. 0. 0. 0.
 0. 0. 0. 0.
 0. 0. 0. 0.
 0. 0. 0. 0.
 0. 0. 0. 0.
 0. 0. 0. 0.
 0. 0. 0. 0.
 0. 0. 0. 0.
 0. 0. 0. 0.
 0. 0. 0. 0.
 0. 0. 0. 0.
 0. 0. 0. 0.
 0. 0. 0. 0.
 0. 0. 0. 0.
 0. 0. 0. 0.
 0. 0. 0. 0.
 0. 0. 0. 0.
 0. 0. 0. 0.
 0. 0. 0. 0.
 0. 0. 0. 0.
 0. 0. 0. 0.
 0. 0. 0. 0.
 0. 0. 0. 0.
 0. 0. 0. 0.
 0. 0. 0. 0.
 0. 0. 0. 0.
 0. 0. 0. 0.
 0. 0. 0. 0.
 0. 0. 0. 0.
 0. 0. 0. 0.
 0. 0. 0. 0.
 0. 0. 0. 0.
 0. 0. 0. 0.
 0. 0. 0. 0.
 0. 0. 0. 0.
 0. 0. 0. 0.
 0. 0. 0. 0.
 0. 0. 0. 0.
 0. 0. 0. 0.
 0. 0. 0. 0.
 0. 0. 0. 0.
 0. 0. 0. 0.
 0. 0. 0. 0.
 0. 0. 0. 0.
 0. 0. 0. 0.
 0. 0. 0. 0.
 0. 0. 0. 0.
 0. 0. 0. 0.
 0. 0. 0. 0.
 0. 0. 0. 0.
 0. 0. 0. 0.
 0. 0. 0. 0.
 0. 0. 0. 0.
 0. 0. 0. 0.
 0. 0. 0. 0.
 0. 0. 0. 0.
 0. 0. 0. 0.
 0. 0. 0. 0.
 0. 0. 0. 0.
 0. 0. 0. 0.
 0. 0. 0. 0.
 0. 0. 0. 0.
 0. 0. 0. 0.
 0. 0. 0. 0.
 0. 0. 0. 0.
 0. 0. 0. 0.
 0. 0. 0. 0.
 0. 0. 0. 0.
 0. 0. 0. 0.
 0. 0. 0. 0.
 0. 0. 0. 0.
 0. 0. 0. 0.
 0. 0. 0. 0.
 0. 0. 0. 0.
 0. 0. 0. 0.
 0. 0. 0. 0.
 0. 0. 0. 0.
 0. 0. 0. 0.
 0. 0. 0. 0.
 0. 0. 0. 0.
 0. 0. 0. 0.
 0. 0. 0. 0.
 0. 0. 0. 0.
 0. 0. 0. 0.
 0. 0. 0. 0.
 0. 0. 0. 0.
 0. 0. 0. 0.
 0. 0. 0. 0.
 0. 0. 0. 0.
 0. 0. 0. 0.
 0. 0. 0. 0.
 0. 0. 0. 0.
 0. 0. 0. 0.
 0. 0. 0. 0.
 0. 0. 0. 0.
 0. 0. 0. 0.
 0. 0. 0. 0.
 0. 0. 0. 0.
 0. 0. 0. 0.
 0. 0. 0. 0.
 0. 0. 0. 0.
 0. 0. 0. 0.
 0. 0. 0. 0.
 0. 0. 0. 0.
 0. 0. 0. 0.
 0. 0. 0. 0.
 0. 0. 0. 0.
 0. 0. 0. 0.
 0. 0. 0. 0.
 0. 0. 0. 0.
 0. 0. 0. 0.
 0. 0. 0. 0.
 0. 0. 0. 0.
 0. 0. 0. 0.
 0. 0. 0. 0.
 0. 0. 0. 0.
 0. 0. 0. 0.
 0. 0. 0. 0.
 0. 0. 0. 0.
 0. 0. 0. 0.
 0. 0. 0. 0.
 0. 0. 0. 0.
 0. 0. 0. 0.
 0. 0. 0. 0.
 0. 0. 0. 0.
 0. 0. 0. 0.
 0. 0. 0. 0.
 0. 0. 0. 0.
 0. 0. 0. 0.
 0. 0. 0. 0.
 0. 0. 0. 0.
 0. 0. 0. 0.
 0. 0. 0. 0.
 0. 0. 0. 0.
 0. 0. 0. 0.
 0. 0. 0. 0.
 0. 0. 0. 0.
 0. 0. 0. 0.
   </PP_BETA.6>
   <PP_BETA.7
       type="real"
       size="1940"
       columns="4"
       index="7"
       angular_momentum="3"
       cutoff_radius_index=" 216"
       cutoff_radius="    2.1500000000E+00" >
    4.6341170164E-10    1.0508419431E-07    1.6820668822E-06    8.5214925133E-06
    2.6958508437E-05    6.5898271712E-05    1.3684963173E-04    2.5396524638E-04
    4.3408582609E-04    6.9678578242E-04    1.0644171947E-03    1.5621487070E-03
    2.2179957353E-03    3.0628382071E-03    4.1304219760E-03    5.4573400549E-03
    7.0829898998E-03    9.0495031415E-03    1.1401644415E-02    1.4186676267E-02
    1.7454187530E-02    2.1255883014E-02    2.5645332941E-02    3.0677681083E-02
    3.6409311280E-02    4.2897472625E-02    5.0199864358E-02    5.8374182203E-02
    6.7477628622E-02    7.7566390170E-02    8.8695085829E-02    1.0091619089E-01
    1.1427944149E-01    1.2883122568E-01    1.4461396705E-01    1.6166550780E-01
    1.8001849809E-01    1.9969979910E-01    2.2072990704E-01    2.4312240579E-01
    2.6688345541E-01    2.9201132394E-01    3.1849596946E-01    3.4631867901E-01
    3.7545177059E-01    4.0585836388E-01    4.3749222448E-01    4.7029768608E-01
    5.0420965373E-01    5.3915369080E-01    5.7504619120E-01    6.1179463734E-01
    6.4929794343E-01    6.8744688264E-01    7.2612459564E-01    7.6520717691E-01
    8.0456433444E-01    8.4406011730E-01    8.8355370477E-01    9.2290024983E-01
    9.6195176923E-01    1.0005580715E+00    1.0385677140E+00    1.0758289790E+00
    1.1121908600E+00    1.1475040471E+00    1.1816219021E+00    1.2144014136E+00
    1.2457041214E+00    1.2753970014E+00    1.3033533024E+00    1.3294533255E+00
    1.3535851393E+00    1.3756452231E+00    1.3955390333E+00    1.4131814871E+00
    1.4284973594E+00    1.4414215915E+00    1.4518995076E+00    1.4598869412E+00
    1.4653502695E+00    1.4682663599E+00    1.4686224298E+00    1.4664158246E+00
    1.4616537194E+00    1.4543527491E+00    1.4445385753E+00    1.4322453973E+00
    1.4175154143E+00    1.4003982504E+00    1.3809503489E+00    1.3592343478E+00
    1.3353184441E+00    1.3092757590E+00    1.2811837114E+00    1.2511234106E+00
    1.2191790753E+00    1.1854374896E+00    1.1499875003E+00    1.1129195656E+00
    1.0743253580E+00    1.0342974282E+00    9.9292893256E-01    9.5031342747E-01
    9.0654473062E-01    8.6171685069E-01    8.1592398329E-01    7.6926057109E-01
    7.2182142428E-01    6.7370189654E-01    6.2499811030E-01    5.7580722401E-01
    5.2622773282E-01    4.7635979309E-01    4.2630555952E-01    3.7616952272E-01
    3.2605883306E-01    2.7608359490E-01    2.2635711253E-01    1.7699606594E-01
    1.2812058972E-01    7.9854221848E-02    3.2323680035E-02   -1.4341589625E-02
   -6.0010165166E-02   -1.0454980115E-01   -1.4782911517E-01   -1.8971999141E-01
   -2.3010088079E-01   -2.6884951244E-01   -3.0671573601E-01   -3.4585618098E-01
   -3.8514458268E-01   -4.2363329657E-01   -4.6075528784E-01   -4.9618838932E-01
   -5.2975057445E-01   -5.6132346717E-01   -5.9080147431E-01   -6.1806286576E-01
   -6.4295843299E-01   -6.6531305474E-01   -6.8493560310E-01   -7.0163309258E-01
   -7.1522567460E-01   -7.2556393863E-01   -7.3254732375E-01   -7.3611407430E-01
   -7.3623787805E-01   -7.3292767826E-01   -7.2622625367E-01   -7.1620804900E-01
   -7.0297660855E-01   -6.8666186777E-01   -6.6741746769E-01   -6.4541818123E-01
   -6.2085748292E-01   -5.9394525495E-01   -5.6490560066E-01   -5.3397472768E-01
   -5.0139886462E-01   -4.6743218205E-01   -4.3233469947E-01   -3.9637017063E-01
   -3.5980394975E-01   -3.2290084910E-01   -2.8592300392E-01   -2.4912776344E-01
   -2.1276562786E-01   -1.7707824999E-01   -1.4229651860E-01   -1.0863873755E-01
   -7.6308911779E-02   -4.5495147999E-02   -1.6368176487E-02    1.0920116278E-02
    3.6236009632E-02    5.9458661031E-02    8.0490636640E-02    9.9257740619E-02
    1.1570779560E-01    1.2981203541E-01    1.4156612630E-01    1.5098734000E-01
    1.5811502209E-01    1.6301018711E-01    1.6575464634E-01    1.6644993338E-01
    1.6521602074E-01    1.6218983885E-01    1.5752361107E-01    1.5138302143E-01
    1.4394523401E-01    1.3539678499E-01    1.2593137041E-01    1.1574755402E-01
    1.0504642089E-01    9.4029203178E-02    8.2894905047E-02    7.1837953798E-02
    6.1045904151E-02    5.0697222132E-02    4.0959174184E-02    3.1985846083E-02
    2.3916314806E-02    1.6872994870E-02    1.0960178759E-02    6.2627888623E-03
    2.8453560601E-03    7.4835399294E-04    7.8078483297E-06    3.8504280275E-06
    2.0264172028E-12    0.0000000000E+00    0.0000000000E+00    0.0000000000E+00
 0. 0. 0. 0.
 0. 0. 0. 0.
 0. 0. 0. 0.
 0. 0. 0. 0.
 0. 0. 0. 0.
 0. 0. 0. 0.
 0. 0. 0. 0.
 0. 0. 0. 0.
 0. 0. 0. 0.
 0. 0. 0. 0.
 0. 0. 0. 0.
 0. 0. 0. 0.
 0. 0. 0. 0.
 0. 0. 0. 0.
 0. 0. 0. 0.
 0. 0. 0. 0.
 0. 0. 0. 0.
 0. 0. 0. 0.
 0. 0. 0. 0.
 0. 0. 0. 0.
 0. 0. 0. 0.
 0. 0. 0. 0.
 0. 0. 0. 0.
 0. 0. 0. 0.
 0. 0. 0. 0.
 0. 0. 0. 0.
 0. 0. 0. 0.
 0. 0. 0. 0.
 0. 0. 0. 0.
 0. 0. 0. 0.
 0. 0. 0. 0.
 0. 0. 0. 0.
 0. 0. 0. 0.
 0. 0. 0. 0.
 0. 0. 0. 0.
 0. 0. 0. 0.
 0. 0. 0. 0.
 0. 0. 0. 0.
 0. 0. 0. 0.
 0. 0. 0. 0.
 0. 0. 0. 0.
 0. 0. 0. 0.
 0. 0. 0. 0.
 0. 0. 0. 0.
 0. 0. 0. 0.
 0. 0. 0. 0.
 0. 0. 0. 0.
 0. 0. 0. 0.
 0. 0. 0. 0.
 0. 0. 0. 0.
 0. 0. 0. 0.
 0. 0. 0. 0.
 0. 0. 0. 0.
 0. 0. 0. 0.
 0. 0. 0. 0.
 0. 0. 0. 0.
 0. 0. 0. 0.
 0. 0. 0. 0.
 0. 0. 0. 0.
 0. 0. 0. 0.
 0. 0. 0. 0.
 0. 0. 0. 0.
 0. 0. 0. 0.
 0. 0. 0. 0.
 0. 0. 0. 0.
 0. 0. 0. 0.
 0. 0. 0. 0.
 0. 0. 0. 0.
 0. 0. 0. 0.
 0. 0. 0. 0.
 0. 0. 0. 0.
 0. 0. 0. 0.
 0. 0. 0. 0.
 0. 0. 0. 0.
 0. 0. 0. 0.
 0. 0. 0. 0.
 0. 0. 0. 0.
 0. 0. 0. 0.
 0. 0. 0. 0.
 0. 0. 0. 0.
 0. 0. 0. 0.
 0. 0. 0. 0.
 0. 0. 0. 0.
 0. 0. 0. 0.
 0. 0. 0. 0.
 0. 0. 0. 0.
 0. 0. 0. 0.
 0. 0. 0. 0.
 0. 0. 0. 0.
 0. 0. 0. 0.
 0. 0. 0. 0.
 0. 0. 0. 0.
 0. 0. 0. 0.
 0. 0. 0. 0.
 0. 0. 0. 0.
 0. 0. 0. 0.
 0. 0. 0. 0.
 0. 0. 0. 0.
 0. 0. 0. 0.
 0. 0. 0. 0.
 0. 0. 0. 0.
 0. 0. 0. 0.
 0. 0. 0. 0.
 0. 0. 0. 0.
 0. 0. 0. 0.
 0. 0. 0. 0.
 0. 0. 0. 0.
 0. 0. 0. 0.
 0. 0. 0. 0.
 0. 0. 0. 0.
 0. 0. 0. 0.
 0. 0. 0. 0.
 0. 0. 0. 0.
 0. 0. 0. 0.
 0. 0. 0. 0.
 0. 0. 0. 0.
 0. 0. 0. 0.
 0. 0. 0. 0.
 0. 0. 0. 0.
 0. 0. 0. 0.
 0. 0. 0. 0.
 0. 0. 0. 0.
 0. 0. 0. 0.
 0. 0. 0. 0.
 0. 0. 0. 0.
 0. 0. 0. 0.
 0. 0. 0. 0.
 0. 0. 0. 0.
 0. 0. 0. 0.
 0. 0. 0. 0.
 0. 0. 0. 0.
 0. 0. 0. 0.
 0. 0. 0. 0.
 0. 0. 0. 0.
 0. 0. 0. 0.
 0. 0. 0. 0.
 0. 0. 0. 0.
 0. 0. 0. 0.
 0. 0. 0. 0.
 0. 0. 0. 0.
 0. 0. 0. 0.
 0. 0. 0. 0.
 0. 0. 0. 0.
 0. 0. 0. 0.
 0. 0. 0. 0.
 0. 0. 0. 0.
 0. 0. 0. 0.
 0. 0. 0. 0.
 0. 0. 0. 0.
 0. 0. 0. 0.
 0. 0. 0. 0.
 0. 0. 0. 0.
 0. 0. 0. 0.
 0. 0. 0. 0.
 0. 0. 0. 0.
 0. 0. 0. 0.
 0. 0. 0. 0.
 0. 0. 0. 0.
 0. 0. 0. 0.
 0. 0. 0. 0.
 0. 0. 0. 0.
 0. 0. 0. 0.
 0. 0. 0. 0.
 0. 0. 0. 0.
 0. 0. 0. 0.
 0. 0. 0. 0.
 0. 0. 0. 0.
 0. 0. 0. 0.
 0. 0. 0. 0.
 0. 0. 0. 0.
 0. 0. 0. 0.
 0. 0. 0. 0.
 0. 0. 0. 0.
 0. 0. 0. 0.
 0. 0. 0. 0.
 0. 0. 0. 0.
 0. 0. 0. 0.
 0. 0. 0. 0.
 0. 0. 0. 0.
 0. 0. 0. 0.
 0. 0. 0. 0.
 0. 0. 0. 0.
 0. 0. 0. 0.
 0. 0. 0. 0.
 0. 0. 0. 0.
 0. 0. 0. 0.
 0. 0. 0. 0.
 0. 0. 0. 0.
 0. 0. 0. 0.
 0. 0. 0. 0.
 0. 0. 0. 0.
 0. 0. 0. 0.
 0. 0. 0. 0.
 0. 0. 0. 0.
 0. 0. 0. 0.
 0. 0. 0. 0.
 0. 0. 0. 0.
 0. 0. 0. 0.
 0. 0. 0. 0.
 0. 0. 0. 0.
 0. 0. 0. 0.
 0. 0. 0. 0.
 0. 0. 0. 0.
 0. 0. 0. 0.
 0. 0. 0. 0.
 0. 0. 0. 0.
 0. 0. 0. 0.
 0. 0. 0. 0.
 0. 0. 0. 0.
 0. 0. 0. 0.
 0. 0. 0. 0.
 0. 0. 0. 0.
 0. 0. 0. 0.
 0. 0. 0. 0.
 0. 0. 0. 0.
 0. 0. 0. 0.
 0. 0. 0. 0.
 0. 0. 0. 0.
 0. 0. 0. 0.
 0. 0. 0. 0.
 0. 0. 0. 0.
 0. 0. 0. 0.
 0. 0. 0. 0.
 0. 0. 0. 0.
 0. 0. 0. 0.
 0. 0. 0. 0.
 0. 0. 0. 0.
 0. 0. 0. 0.
 0. 0. 0. 0.
 0. 0. 0. 0.
 0. 0. 0. 0.
 0. 0. 0. 0.
 0. 0. 0. 0.
 0. 0. 0. 0.
 0. 0. 0. 0.
 0. 0. 0. 0.
 0. 0. 0. 0.
 0. 0. 0. 0.
 0. 0. 0. 0.
 0. 0. 0. 0.
 0. 0. 0. 0.
 0. 0. 0. 0.
 0. 0. 0. 0.
 0. 0. 0. 0.
 0. 0. 0. 0.
 0. 0. 0. 0.
 0. 0. 0. 0.
 0. 0. 0. 0.
 0. 0. 0. 0.
 0. 0. 0. 0.
 0. 0. 0. 0.
 0. 0. 0. 0.
 0. 0. 0. 0.
 0. 0. 0. 0.
 0. 0. 0. 0.
 0. 0. 0. 0.
 0. 0. 0. 0.
 0. 0. 0. 0.
 0. 0. 0. 0.
 0. 0. 0. 0.
 0. 0. 0. 0.
 0. 0. 0. 0.
 0. 0. 0. 0.
 0. 0. 0. 0.
 0. 0. 0. 0.
 0. 0. 0. 0.
 0. 0. 0. 0.
 0. 0. 0. 0.
 0. 0. 0. 0.
 0. 0. 0. 0.
 0. 0. 0. 0.
 0. 0. 0. 0.
 0. 0. 0. 0.
 0. 0. 0. 0.
 0. 0. 0. 0.
 0. 0. 0. 0.
 0. 0. 0. 0.
 0. 0. 0. 0.
 0. 0. 0. 0.
 0. 0. 0. 0.
 0. 0. 0. 0.
 0. 0. 0. 0.
 0. 0. 0. 0.
 0. 0. 0. 0.
 0. 0. 0. 0.
 0. 0. 0. 0.
 0. 0. 0. 0.
 0. 0. 0. 0.
 0. 0. 0. 0.
 0. 0. 0. 0.
 0. 0. 0. 0.
 0. 0. 0. 0.
 0. 0. 0. 0.
 0. 0. 0. 0.
 0. 0. 0. 0.
 0. 0. 0. 0.
 0. 0. 0. 0.
 0. 0. 0. 0.
 0. 0. 0. 0.
 0. 0. 0. 0.
 0. 0. 0. 0.
 0. 0. 0. 0.
 0. 0. 0. 0.
 0. 0. 0. 0.
 0. 0. 0. 0.
 0. 0. 0. 0.
 0. 0. 0. 0.
 0. 0. 0. 0.
 0. 0. 0. 0.
 0. 0. 0. 0.
 0. 0. 0. 0.
 0. 0. 0. 0.
 0. 0. 0. 0.
 0. 0. 0. 0.
 0. 0. 0. 0.
 0. 0. 0. 0.
 0. 0. 0. 0.
 0. 0. 0. 0.
 0. 0. 0. 0.
 0. 0. 0. 0.
 0. 0. 0. 0.
 0. 0. 0. 0.
 0. 0. 0. 0.
 0. 0. 0. 0.
 0. 0. 0. 0.
 0. 0. 0. 0.
 0. 0. 0. 0.
 0. 0. 0. 0.
 0. 0. 0. 0.
 0. 0. 0. 0.
 0. 0. 0. 0.
 0. 0. 0. 0.
 0. 0. 0. 0.
 0. 0. 0. 0.
 0. 0. 0. 0.
 0. 0. 0. 0.
 0. 0. 0. 0.
 0. 0. 0. 0.
 0. 0. 0. 0.
 0. 0. 0. 0.
 0. 0. 0. 0.
 0. 0. 0. 0.
 0. 0. 0. 0.
 0. 0. 0. 0.
 0. 0. 0. 0.
 0. 0. 0. 0.
 0. 0. 0. 0.
 0. 0. 0. 0.
 0. 0. 0. 0.
 0. 0. 0. 0.
 0. 0. 0. 0.
 0. 0. 0. 0.
 0. 0. 0. 0.
 0. 0. 0. 0.
 0. 0. 0. 0.
 0. 0. 0. 0.
 0. 0. 0. 0.
 0. 0. 0. 0.
 0. 0. 0. 0.
 0. 0. 0. 0.
 0. 0. 0. 0.
 0. 0. 0. 0.
 0. 0. 0. 0.
 0. 0. 0. 0.
 0. 0. 0. 0.
 0. 0. 0. 0.
 0. 0. 0. 0.
 0. 0. 0. 0.
 0. 0. 0. 0.
 0. 0. 0. 0.
 0. 0. 0. 0.
 0. 0. 0. 0.
 0. 0. 0. 0.
 0. 0. 0. 0.
 0. 0. 0. 0.
 0. 0. 0. 0.
 0. 0. 0. 0.
 0. 0. 0. 0.
 0. 0. 0. 0.
 0. 0. 0. 0.
 0. 0. 0. 0.
 0. 0. 0. 0.
 0. 0. 0. 0.
 0. 0. 0. 0.
 0. 0. 0. 0.
 0. 0. 0. 0.
 0. 0. 0. 0.
 0. 0. 0. 0.
 0. 0. 0. 0.
 0. 0. 0. 0.
 0. 0. 0. 0.
 0. 0. 0. 0.
 0. 0. 0. 0.
 0. 0. 0. 0.
 0. 0. 0. 0.
 0. 0. 0. 0.
 0. 0. 0. 0.
 0. 0. 0. 0.
 0. 0. 0. 0.
 0. 0. 0. 0.
 0. 0. 0. 0.
 0. 0. 0. 0.
 0. 0. 0. 0.
 0. 0. 0. 0.
 0. 0. 0. 0.
 0. 0. 0. 0.
 0. 0. 0. 0.
 0. 0. 0. 0.
 0. 0. 0. 0.
 0. 0. 0. 0.
 0. 0. 0. 0.
 0. 0. 0. 0.
 0. 0. 0. 0.
 0. 0. 0. 0.
 0. 0. 0. 0.
 0. 0. 0. 0.
 0. 0. 0. 0.
 0. 0. 0. 0.
 0. 0. 0. 0.
 0. 0. 0. 0.
 0. 0. 0. 0.
 0. 0. 0. 0.
 0. 0. 0. 0.
 0. 0. 0. 0.
 0. 0. 0. 0.
 0. 0. 0. 0.
 0. 0. 0. 0.
 0. 0. 0. 0.
 0. 0. 0. 0.
 0. 0. 0. 0.
 0. 0. 0. 0.
   </PP_BETA.7>
   <PP_BETA.8
       type="real"
       size="1940"
       columns="4"
       index="8"
       angular_momentum="3"
       cutoff_radius_index=" 216"
       cutoff_radius="    2.1500000000E+00" >
   -7.7614393122E-10    2.2987860650E-08    3.6529410895E-07    1.8281822825E-06
    5.6849961534E-06    1.3589592905E-05    2.7451272740E-05    4.9279259559E-05
    8.1000563513E-05    1.2425576207E-04    1.8017785861E-04    2.4915990437E-04
    3.3061749103E-04    4.2275252785E-04    5.2232490347E-04    6.2443869278E-04
    7.2234950124E-04    8.0729934256E-04    8.6838512212E-04    8.9246635159E-04
    8.6411715681E-04    7.6562696768E-04    5.7705350686E-04    2.7633083421E-04
   -1.6056573019E-04   -7.5939697541E-04   -1.5473796699E-03   -2.5528502057E-03
   -3.8048743650E-03   -5.3328066212E-03   -7.1658034311E-03   -9.3322959650E-03
   -1.1859428662E-02   -1.4772470851E-02   -1.8094209445E-02   -2.1844331361E-02
   -2.6038804871E-02   -3.0689269475E-02   -3.5802444153E-02   -4.1379563963E-02
   -4.7415854922E-02   -5.3900056895E-02   -6.0814003859E-02   -6.8132270424E-02
   -7.5821892806E-02   -8.3842171656E-02   -9.2144563223E-02   -1.0067266425E-01
   -1.0936229485E-01   -1.1814168234E-01   -1.2693174768E-01   -1.3564649476E-01
   -1.4419350139E-01   -1.5247450925E-01   -1.6038610888E-01   -1.6782051405E-01
   -1.7466641876E-01   -1.8080992859E-01   -1.8613555703E-01   -1.9052727633E-01
   -1.9386961127E-01   -1.9604876360E-01   -1.9695375409E-01   -1.9647756861E-01
   -1.9451829445E-01   -1.9098023279E-01   -1.8577497339E-01   -1.7882241771E-01
   -1.7005173726E-01   -1.5940225442E-01   -1.4682423396E-01   -1.3227957437E-01
   -1.1574238928E-01   -9.7199470645E-02   -7.6650626722E-02   -5.4108889438E-02
   -2.9600587443E-02   -3.1652828376E-03    2.5144428652E-02    5.5263252495E-02
    8.7113661802E-02    1.2060649026E-01    1.5564164476E-01    1.9210892911E-01
    2.2988896909E-01    2.6885422706E-01    3.0887009388E-01    3.4979604407E-01
    3.9148683972E-01    4.3379376783E-01    4.7656589522E-01    5.1965132497E-01
    5.6289843832E-01    6.0615710624E-01    6.4927985511E-01    6.9212297200E-01
    7.3454753565E-01    7.7642036057E-01    8.1761484289E-01    8.5801169841E-01
    8.9749958460E-01    9.3597560063E-01    9.7334566124E-01    1.0095247426E+00
    1.0444370002E+00    1.0780157620E+00    1.1102034012E+00    1.1409510963E+00
    1.1702184890E+00    1.1979732510E+00    1.2241905761E+00    1.2488526138E+00
    1.2719478653E+00    1.2934705624E+00    1.3134200574E+00    1.3318002479E+00
    1.3486190698E+00    1.3638880899E+00    1.3776222334E+00    1.3898396874E+00
    1.4005620186E+00    1.4098145509E+00    1.4176270465E+00    1.4240347344E+00
    1.4290797238E+00    1.4328128294E+00    1.4352958085E+00    1.4366039669E+00
    1.4368289847E+00    1.4360781511E+00    1.4346810303E+00    1.4328948892E+00
    1.4299351439E+00    1.4252915737E+00    1.4186786244E+00    1.4099211447E+00
    1.3988811602E+00    1.3854174654E+00    1.3693701095E+00    1.3505622086E+00
    1.3288122427E+00    1.3039510502E+00    1.2758390134E+00    1.2443803172E+00
    1.2095325354E+00    1.1713069154E+00    1.1297517439E+00    1.0849524571E+00
    1.0370314339E+00    9.8614419518E-01    9.3247558867E-01    8.7623621240E-01
    8.1765922460E-01    7.5699757420E-01    6.9452160844E-01    6.3051696704E-01
    5.6528265366E-01    4.9912917695E-01    4.3237666941E-01    3.6535291636E-01
    2.9839125365E-01    2.3182831810E-01    1.6600165645E-01    1.0124721454E-01
    3.7896739499E-02   -2.3724867413E-02   -8.3302208343E-02   -1.4053202064E-01
   -1.9512575122E-01   -2.4681204758E-01   -2.9533914592E-01   -3.4047714249E-01
   -3.8202014023E-01   -4.1978826793E-01   -4.5362956707E-01   -4.8342217813E-01
   -5.0906895279E-01   -5.3047814024E-01   -5.4760167938E-01   -5.6043058018E-01
   -5.6898891020E-01   -5.7333750406E-01   -5.7357629027E-01   -5.6983516805E-01
   -5.6227617411E-01   -5.5109296073E-01   -5.3650916047E-01   -5.1877647749E-01
   -4.9817246975E-01   -4.7499803736E-01   -4.4957463728E-01   -4.2224124888E-01
   -3.9335111944E-01   -3.6326832165E-01   -3.3236415893E-01   -3.0101345628E-01
   -2.6959077682E-01   -2.3846660485E-01   -2.0800353756E-01   -1.7855252737E-01
   -1.5044921651E-01   -1.2401040502E-01   -9.9530691499E-02   -7.7279324783E-02
   -5.7497302125E-02   -4.0394747131E-02   -2.6148597668E-02   -1.4900630680E-02
   -6.7558471762E-03   -1.7744062804E-03   -1.8498871244E-05   -9.1221288260E-06
   -3.8722193455E-12    0.0000000000E+00    0.0000000000E+00    0.0000000000E+00
 0. 0. 0. 0.
 0. 0. 0. 0.
 0. 0. 0. 0.
 0. 0. 0. 0.
 0. 0. 0. 0.
 0. 0. 0. 0.
 0. 0. 0. 0.
 0. 0. 0. 0.
 0. 0. 0. 0.
 0. 0. 0. 0.
 0. 0. 0. 0.
 0. 0. 0. 0.
 0. 0. 0. 0.
 0. 0. 0. 0.
 0. 0. 0. 0.
 0. 0. 0. 0.
 0. 0. 0. 0.
 0. 0. 0. 0.
 0. 0. 0. 0.
 0. 0. 0. 0.
 0. 0. 0. 0.
 0. 0. 0. 0.
 0. 0. 0. 0.
 0. 0. 0. 0.
 0. 0. 0. 0.
 0. 0. 0. 0.
 0. 0. 0. 0.
 0. 0. 0. 0.
 0. 0. 0. 0.
 0. 0. 0. 0.
 0. 0. 0. 0.
 0. 0. 0. 0.
 0. 0. 0. 0.
 0. 0. 0. 0.
 0. 0. 0. 0.
 0. 0. 0. 0.
 0. 0. 0. 0.
 0. 0. 0. 0.
 0. 0. 0. 0.
 0. 0. 0. 0.
 0. 0. 0. 0.
 0. 0. 0. 0.
 0. 0. 0. 0.
 0. 0. 0. 0.
 0. 0. 0. 0.
 0. 0. 0. 0.
 0. 0. 0. 0.
 0. 0. 0. 0.
 0. 0. 0. 0.
 0. 0. 0. 0.
 0. 0. 0. 0.
 0. 0. 0. 0.
 0. 0. 0. 0.
 0. 0. 0. 0.
 0. 0. 0. 0.
 0. 0. 0. 0.
 0. 0. 0. 0.
 0. 0. 0. 0.
 0. 0. 0. 0.
 0. 0. 0. 0.
 0. 0. 0. 0.
 0. 0. 0. 0.
 0. 0. 0. 0.
 0. 0. 0. 0.
 0. 0. 0. 0.
 0. 0. 0. 0.
 0. 0. 0. 0.
 0. 0. 0. 0.
 0. 0. 0. 0.
 0. 0. 0. 0.
 0. 0. 0. 0.
 0. 0. 0. 0.
 0. 0. 0. 0.
 0. 0. 0. 0.
 0. 0. 0. 0.
 0. 0. 0. 0.
 0. 0. 0. 0.
 0. 0. 0. 0.
 0. 0. 0. 0.
 0. 0. 0. 0.
 0. 0. 0. 0.
 0. 0. 0. 0.
 0. 0. 0. 0.
 0. 0. 0. 0.
 0. 0. 0. 0.
 0. 0. 0. 0.
 0. 0. 0. 0.
 0. 0. 0. 0.
 0. 0. 0. 0.
 0. 0. 0. 0.
 0. 0. 0. 0.
 0. 0. 0. 0.
 0. 0. 0. 0.
 0. 0. 0. 0.
 0. 0. 0. 0.
 0. 0. 0. 0.
 0. 0. 0. 0.
 0. 0. 0. 0.
 0. 0. 0. 0.
 0. 0. 0. 0.
 0. 0. 0. 0.
 0. 0. 0. 0.
 0. 0. 0. 0.
 0. 0. 0. 0.
 0. 0. 0. 0.
 0. 0. 0. 0.
 0. 0. 0. 0.
 0. 0. 0. 0.
 0. 0. 0. 0.
 0. 0. 0. 0.
 0. 0. 0. 0.
 0. 0. 0. 0.
 0. 0. 0. 0.
 0. 0. 0. 0.
 0. 0. 0. 0.
 0. 0. 0. 0.
 0. 0. 0. 0.
 0. 0. 0. 0.
 0. 0. 0. 0.
 0. 0. 0. 0.
 0. 0. 0. 0.
 0. 0. 0. 0.
 0. 0. 0. 0.
 0. 0. 0. 0.
 0. 0. 0. 0.
 0. 0. 0. 0.
 0. 0. 0. 0.
 0. 0. 0. 0.
 0. 0. 0. 0.
 0. 0. 0. 0.
 0. 0. 0. 0.
 0. 0. 0. 0.
 0. 0. 0. 0.
 0. 0. 0. 0.
 0. 0. 0. 0.
 0. 0. 0. 0.
 0. 0. 0. 0.
 0. 0. 0. 0.
 0. 0. 0. 0.
 0. 0. 0. 0.
 0. 0. 0. 0.
 0. 0. 0. 0.
 0. 0. 0. 0.
 0. 0. 0. 0.
 0. 0. 0. 0.
 0. 0. 0. 0.
 0. 0. 0. 0.
 0. 0. 0. 0.
 0. 0. 0. 0.
 0. 0. 0. 0.
 0. 0. 0. 0.
 0. 0. 0. 0.
 0. 0. 0. 0.
 0. 0. 0. 0.
 0. 0. 0. 0.
 0. 0. 0. 0.
 0. 0. 0. 0.
 0. 0. 0. 0.
 0. 0. 0. 0.
 0. 0. 0. 0.
 0. 0. 0. 0.
 0. 0. 0. 0.
 0. 0. 0. 0.
 0. 0. 0. 0.
 0. 0. 0. 0.
 0. 0. 0. 0.
 0. 0. 0. 0.
 0. 0. 0. 0.
 0. 0. 0. 0.
 0. 0. 0. 0.
 0. 0. 0. 0.
 0. 0. 0. 0.
 0. 0. 0. 0.
 0. 0. 0. 0.
 0. 0. 0. 0.
 0. 0. 0. 0.
 0. 0. 0. 0.
 0. 0. 0. 0.
 0. 0. 0. 0.
 0. 0. 0. 0.
 0. 0. 0. 0.
 0. 0. 0. 0.
 0. 0. 0. 0.
 0. 0. 0. 0.
 0. 0. 0. 0.
 0. 0. 0. 0.
 0. 0. 0. 0.
 0. 0. 0. 0.
 0. 0. 0. 0.
 0. 0. 0. 0.
 0. 0. 0. 0.
 0. 0. 0. 0.
 0. 0. 0. 0.
 0. 0. 0. 0.
 0. 0. 0. 0.
 0. 0. 0. 0.
 0. 0. 0. 0.
 0. 0. 0. 0.
 0. 0. 0. 0.
 0. 0. 0. 0.
 0. 0. 0. 0.
 0. 0. 0. 0.
 0. 0. 0. 0.
 0. 0. 0. 0.
 0. 0. 0. 0.
 0. 0. 0. 0.
 0. 0. 0. 0.
 0. 0. 0. 0.
 0. 0. 0. 0.
 0. 0. 0. 0.
 0. 0. 0. 0.
 0. 0. 0. 0.
 0. 0. 0. 0.
 0. 0. 0. 0.
 0. 0. 0. 0.
 0. 0. 0. 0.
 0. 0. 0. 0.
 0. 0. 0. 0.
 0. 0. 0. 0.
 0. 0. 0. 0.
 0. 0. 0. 0.
 0. 0. 0. 0.
 0. 0. 0. 0.
 0. 0. 0. 0.
 0. 0. 0. 0.
 0. 0. 0. 0.
 0. 0. 0. 0.
 0. 0. 0. 0.
 0. 0. 0. 0.
 0. 0. 0. 0.
 0. 0. 0. 0.
 0. 0. 0. 0.
 0. 0. 0. 0.
 0. 0. 0. 0.
 0. 0. 0. 0.
 0. 0. 0. 0.
 0. 0. 0. 0.
 0. 0. 0. 0.
 0. 0. 0. 0.
 0. 0. 0. 0.
 0. 0. 0. 0.
 0. 0. 0. 0.
 0. 0. 0. 0.
 0. 0. 0. 0.
 0. 0. 0. 0.
 0. 0. 0. 0.
 0. 0. 0. 0.
 0. 0. 0. 0.
 0. 0. 0. 0.
 0. 0. 0. 0.
 0. 0. 0. 0.
 0. 0. 0. 0.
 0. 0. 0. 0.
 0. 0. 0. 0.
 0. 0. 0. 0.
 0. 0. 0. 0.
 0. 0. 0. 0.
 0. 0. 0. 0.
 0. 0. 0. 0.
 0. 0. 0. 0.
 0. 0. 0. 0.
 0. 0. 0. 0.
 0. 0. 0. 0.
 0. 0. 0. 0.
 0. 0. 0. 0.
 0. 0. 0. 0.
 0. 0. 0. 0.
 0. 0. 0. 0.
 0. 0. 0. 0.
 0. 0. 0. 0.
 0. 0. 0. 0.
 0. 0. 0. 0.
 0. 0. 0. 0.
 0. 0. 0. 0.
 0. 0. 0. 0.
 0. 0. 0. 0.
 0. 0. 0. 0.
 0. 0. 0. 0.
 0. 0. 0. 0.
 0. 0. 0. 0.
 0. 0. 0. 0.
 0. 0. 0. 0.
 0. 0. 0. 0.
 0. 0. 0. 0.
 0. 0. 0. 0.
 0. 0. 0. 0.
 0. 0. 0. 0.
 0. 0. 0. 0.
 0. 0. 0. 0.
 0. 0. 0. 0.
 0. 0. 0. 0.
 0. 0. 0. 0.
 0. 0. 0. 0.
 0. 0. 0. 0.
 0. 0. 0. 0.
 0. 0. 0. 0.
 0. 0. 0. 0.
 0. 0. 0. 0.
 0. 0. 0. 0.
 0. 0. 0. 0.
 0. 0. 0. 0.
 0. 0. 0. 0.
 0. 0. 0. 0.
 0. 0. 0. 0.
 0. 0. 0. 0.
 0. 0. 0. 0.
 0. 0. 0. 0.
 0. 0. 0. 0.
 0. 0. 0. 0.
 0. 0. 0. 0.
 0. 0. 0. 0.
 0. 0. 0. 0.
 0. 0. 0. 0.
 0. 0. 0. 0.
 0. 0. 0. 0.
 0. 0. 0. 0.
 0. 0. 0. 0.
 0. 0. 0. 0.
 0. 0. 0. 0.
 0. 0. 0. 0.
 0. 0. 0. 0.
 0. 0. 0. 0.
 0. 0. 0. 0.
 0. 0. 0. 0.
 0. 0. 0. 0.
 0. 0. 0. 0.
 0. 0. 0. 0.
 0. 0. 0. 0.
 0. 0. 0. 0.
 0. 0. 0. 0.
 0. 0. 0. 0.
 0. 0. 0. 0.
 0. 0. 0. 0.
 0. 0. 0. 0.
 0. 0. 0. 0.
 0. 0. 0. 0.
 0. 0. 0. 0.
 0. 0. 0. 0.
 0. 0. 0. 0.
 0. 0. 0. 0.
 0. 0. 0. 0.
 0. 0. 0. 0.
 0. 0. 0. 0.
 0. 0. 0. 0.
 0. 0. 0. 0.
 0. 0. 0. 0.
 0. 0. 0. 0.
 0. 0. 0. 0.
 0. 0. 0. 0.
 0. 0. 0. 0.
 0. 0. 0. 0.
 0. 0. 0. 0.
 0. 0. 0. 0.
 0. 0. 0. 0.
 0. 0. 0. 0.
 0. 0. 0. 0.
 0. 0. 0. 0.
 0. 0. 0. 0.
 0. 0. 0. 0.
 0. 0. 0. 0.
 0. 0. 0. 0.
 0. 0. 0. 0.
 0. 0. 0. 0.
 0. 0. 0. 0.
 0. 0. 0. 0.
 0. 0. 0. 0.
 0. 0. 0. 0.
 0. 0. 0. 0.
 0. 0. 0. 0.
 0. 0. 0. 0.
 0. 0. 0. 0.
 0. 0. 0. 0.
 0. 0. 0. 0.
 0. 0. 0. 0.
 0. 0. 0. 0.
 0. 0. 0. 0.
 0. 0. 0. 0.
 0. 0. 0. 0.
 0. 0. 0. 0.
 0. 0. 0. 0.
 0. 0. 0. 0.
 0. 0. 0. 0.
 0. 0. 0. 0.
 0. 0. 0. 0.
 0. 0. 0. 0.
 0. 0. 0. 0.
 0. 0. 0. 0.
 0. 0. 0. 0.
 0. 0. 0. 0.
 0. 0. 0. 0.
 0. 0. 0. 0.
 0. 0. 0. 0.
 0. 0. 0. 0.
 0. 0. 0. 0.
 0. 0. 0. 0.
 0. 0. 0. 0.
 0. 0. 0. 0.
 0. 0. 0. 0.
 0. 0. 0. 0.
 0. 0. 0. 0.
 0. 0. 0. 0.
 0. 0. 0. 0.
 0. 0. 0. 0.
 0. 0. 0. 0.
 0. 0. 0. 0.
 0. 0. 0. 0.
 0. 0. 0. 0.
 0. 0. 0. 0.
 0. 0. 0. 0.
 0. 0. 0. 0.
 0. 0. 0. 0.
 0. 0. 0. 0.
 0. 0. 0. 0.
 0. 0. 0. 0.
 0. 0. 0. 0.
 0. 0. 0. 0.
 0. 0. 0. 0.
 0. 0. 0. 0.
 0. 0. 0. 0.
 0. 0. 0. 0.
 0. 0. 0. 0.
 0. 0. 0. 0.
 0. 0. 0. 0.
 0. 0. 0. 0.
 0. 0. 0. 0.
 0. 0. 0. 0.
 0. 0. 0. 0.
 0. 0. 0. 0.
 0. 0. 0. 0.
 0. 0. 0. 0.
 0. 0. 0. 0.
   </PP_BETA.8>
   <PP_DIJ type="real"  size="  64" columns="4">
    1.2986952099E+01    0.0000000000E+00    0.0000000000E+00    0.0000000000E+00
    0.0000000000E+00    0.0000000000E+00    0.0000000000E+00    0.0000000000E+00
    0.0000000000E+00    1.2619057153E+00    0.0000000000E+00    0.0000000000E+00
    0.0000000000E+00    0.0000000000E+00    0.0000000000E+00    0.0000000000E+00
    0.0000000000E+00    0.0000000000E+00    1.0824799957E+01    0.0000000000E+00
    0.0000000000E+00    0.0000000000E+00    0.0000000000E+00    0.0000000000E+00
    0.0000000000E+00    0.0000000000E+00    0.0000000000E+00    1.0525081038E+00
    0.0000000000E+00    0.0000000000E+00    0.0000000000E+00    0.0000000000E+00
    0.0000000000E+00    0.0000000000E+00    0.0000000000E+00    0.0000000000E+00
    8.3401590445E+00    0.0000000000E+00    0.0000000000E+00    0.0000000000E+00
    0.0000000000E+00    0.0000000000E+00    0.0000000000E+00    0.0000000000E+00
    0.0000000000E+00    1.8429394830E+00    0.0000000000E+00    0.0000000000E+00
    0.0000000000E+00    0.0000000000E+00    0.0000000000E+00    0.0000000000E+00
    0.0000000000E+00    0.0000000000E+00   -1.4120415896E+01    0.0000000000E+00
    0.0000000000E+00    0.0000000000E+00    0.0000000000E+00    0.0000000000E+00
    0.0000000000E+00    0.0000000000E+00    0.0000000000E+00   -5.0889630236E+00
   </PP_DIJ>
 </PP_NONLOCAL>
 <PP_PSWFC>
   <PP_CHI.1
       type="real"
       size="1940"
       columns="4"
       index="1"
       occupation=" 2.000"
       pseudo_energy="   -0.2559063403E+01"
       label="5S"
       l="0" >
    4.1298084744E-13    1.5765727805E-04    3.2291311204E-04    5.0335452396E-04
    7.0654549237E-04    9.4001549177E-04    1.2112481050E-03    1.5276697326E-03
    1.8966384220E-03    2.3254328409E-03    2.8212414150E-03    3.3911516538E-03
    4.0421396842E-03    4.7810600119E-03    5.6146355299E-03    6.5494477926E-03
    7.5919275710E-03    8.7483457069E-03    1.0024804279E-02    1.1427228097E-02
    1.2961356529E-02    1.4632735688E-02    1.6446710966E-02    1.8408419946E-02
    2.0522785681E-02    2.2794510364E-02    2.5228069370E-02    2.7827705702E-02
    3.0597424817E-02    3.3540989852E-02    3.6661917243E-02    3.9963472730E-02
    4.3448667757E-02    4.7120256266E-02    5.0980731858E-02    5.5032325355E-02
    5.9277002716E-02    6.3716463341E-02    6.8352138720E-02    7.3185191452E-02
    7.8216514606E-02    8.3446731427E-02    8.8876195370E-02    9.4504990468E-02
    1.0033293201E-01    1.0635956755E-01    1.1258417817E-01    1.1900578012E-01
    1.2562312665E-01    1.3243471019E-01    1.3943876479E-01    1.4663326880E-01
    1.5401594786E-01    1.6158427808E-01    1.6933548952E-01    1.7726656991E-01
    1.8537426856E-01    1.9365510058E-01    2.0210535127E-01    2.1072108074E-01
    2.1949812882E-01    2.2843212009E-01    2.3751846924E-01    2.4675238650E-01
    2.5612888346E-01    2.6564277896E-01    2.7528870524E-01    2.8506111431E-01
    2.9495428451E-01    3.0496232730E-01    3.1507919416E-01    3.2529868382E-01
    3.3561444961E-01    3.4602000698E-01    3.5650874127E-01    3.6707391563E-01
    3.7770867911E-01    3.8840607496E-01    3.9915904907E-01    4.0996045857E-01
    4.2080308060E-01    4.3167962121E-01    4.4258272441E-01    4.5350498132E-01
    4.6443893947E-01    4.7537711217E-01    4.8631198798E-01    4.9723604026E-01
    5.0814173677E-01    5.1902154934E-01    5.2986796352E-01    5.4067348826E-01
    5.5143066565E-01    5.6213208048E-01    5.7277036992E-01    5.8333823302E-01
    5.9382844017E-01    6.0423384244E-01    6.1454738079E-01    6.2476209513E-01
    6.3487113319E-01    6.4486775926E-01    6.5474536259E-01    6.6449746569E-01
    6.7411773227E-01    6.8359997495E-01    6.9293816264E-01    7.0212642764E-01
    7.1115907236E-01    7.2003057572E-01    7.2873559915E-01    7.3726899221E-01
    7.4562579786E-01    7.5380125720E-01    7.6179081391E-01    7.6959011817E-01
    7.7719503022E-01    7.8460162335E-01    7.9180618656E-01    7.9880522670E-01
    8.0559547015E-01    8.1217386409E-01    8.1853757725E-01    8.2468400027E-01
    8.3061074559E-01    8.3631564693E-01    8.4179675830E-01    8.4705235263E-01
    8.5208092005E-01    8.5688116566E-01    8.6145200707E-01    8.6579257096E-01
    8.6990218899E-01    8.7378039448E-01    8.7742691901E-01    8.8084168847E-01
    8.8402481888E-01    8.8697661178E-01    8.8969754955E-01    8.9218829042E-01
    8.9444966345E-01    8.9648266331E-01    8.9828844512E-01    8.9986831912E-01
    9.0122374543E-01    9.0235632875E-01    9.0326781311E-01    9.0396007662E-01
    9.0443512634E-01    9.0469509319E-01    9.0474222698E-01    9.0457889155E-01
    9.0420756012E-01    9.0363081071E-01    9.0285132185E-01    9.0187186836E-01
    9.0069531746E-01    8.9932462503E-01    8.9776283212E-01    8.9601306165E-01
    8.9407851547E-01    8.9196247151E-01    8.8966828128E-01    8.8719936761E-01
    8.8455922256E-01    8.8175140563E-01    8.7877954221E-01    8.7564732216E-01
    8.7235849874E-01    8.6891688761E-01    8.6532636613E-01    8.6159087271E-01
    8.5771440644E-01    8.5370102680E-01    8.4955485350E-01    8.4528006641E-01
    8.4088090563E-01    8.3636167156E-01    8.3172672511E-01    8.2698048781E-01
    8.2212744209E-01    8.1717213136E-01    8.1211916024E-01    8.0697319459E-01
    8.0173896156E-01    7.9642124950E-01    7.9102490781E-01    7.8555484662E-01
    7.8001603636E-01    7.7441350716E-01    7.6875234812E-01    7.6303770636E-01
    7.5727478591E-01    7.5146884639E-01    7.4562520171E-01    7.3974921708E-01
    7.3384625470E-01    7.2792042786E-01    7.2197423751E-01    7.1601025537E-01
    7.1003092373E-01    7.0403861525E-01    6.9803562986E-01    6.9202419594E-01
    6.8600647163E-01    6.7998454626E-01    6.7396044178E-01    6.6793611403E-01
    6.6191345420E-01    6.5589429008E-01    6.4988038753E-01    6.4387345169E-01
    6.3787512832E-01    6.3188700511E-01    6.2591061293E-01    6.1994742709E-01
    6.1399886861E-01    6.0806630541E-01    6.0215105355E-01    5.9625437838E-01
    5.9037749573E-01    5.8452157308E-01    5.7868773065E-01    5.7287704253E-01
    5.6709053778E-01    5.6132920151E-01    5.5559397590E-01    5.4988576128E-01
    5.4420541711E-01    5.3855376301E-01    5.3293157972E-01    5.2733961008E-01
    5.2177855994E-01    5.1624909914E-01    5.1075186238E-01    5.0528745015E-01
    4.9985642957E-01    4.9445933530E-01    4.8909667036E-01    4.8376890699E-01
    4.7847648745E-01    4.7321982488E-01    4.6799930406E-01    4.6281528223E-01
    4.5766808988E-01    4.5255803153E-01    4.4748538647E-01    4.4245040960E-01
    4.3745333214E-01    4.3249436241E-01    4.2757368664E-01    4.2269146966E-01
    4.1784785574E-01    4.1304296934E-01    4.0827691590E-01    4.0354978261E-01
    3.9886163924E-01    3.9421253892E-01    3.8960251899E-01    3.8503160178E-01
    3.8049979549E-01    3.7600709502E-01    3.7155348285E-01    3.6713892983E-01
    3.6276339612E-01    3.5842683200E-01    3.5412917875E-01    3.4987036944E-01
    3.4565032980E-01    3.4146897893E-01    3.3732623010E-01    3.3322199140E-01
    3.2915616638E-01    3.2512865457E-01    3.2113935198E-01    3.1718815144E-01
    3.1327494288E-01    3.0939961347E-01    3.0556204771E-01    3.0176212731E-01
    2.9799973105E-01    2.9427473451E-01    2.9058700970E-01    2.8693642462E-01
    2.8332284280E-01    2.7974612275E-01    2.7620611744E-01    2.7270267375E-01
    2.6923563203E-01    2.6580482565E-01    2.6241008063E-01    2.5905121546E-01
    2.5572804096E-01    2.5244036029E-01    2.4918796916E-01    2.4597065616E-01
    2.4278820328E-01    2.3964038659E-01    2.3652697709E-01    2.3344774172E-01
    2.3040244451E-01    2.2739084785E-01    2.2441271382E-01    2.2146780556E-01
    2.1855588870E-01    2.1567673256E-01    2.1283011135E-01    2.1001580502E-01
    2.0723359964E-01    2.0448328843E-01    2.0176467035E-01    1.9907754369E-01
    1.9642170129E-01    1.9379692995E-01    1.9120301109E-01    1.8863972112E-01
    1.8610683196E-01    1.8360411143E-01    1.8113132363E-01    1.7868822930E-01
    1.7627458620E-01    1.7389014943E-01    1.7153467171E-01    1.6920790369E-01
    1.6690959425E-01    1.6463949070E-01    1.6239733908E-01    1.6018288436E-01
    1.5799587069E-01    1.5583604157E-01    1.5370314006E-01    1.5159690899E-01
    1.4951709111E-01    1.4746342927E-01    1.4543566657E-01    1.4343354655E-01
    1.4145681329E-01    1.3950521157E-01    1.3757848703E-01    1.3567638625E-01
    1.3379865692E-01    1.3194504794E-01    1.3011530952E-01    1.2830919335E-01
    1.2652645265E-01    1.2476684230E-01    1.2303011895E-01    1.2131604113E-01
    1.1962436935E-01    1.1795486617E-01    1.1630729636E-01    1.1468142696E-01
    1.1307702739E-01    1.1149386958E-01    1.0993172803E-01    1.0839037996E-01
    1.0686960541E-01    1.0536918736E-01    1.0388891184E-01    1.0242856808E-01
    1.0098794861E-01    9.9566849470E-02    9.8165070286E-02    9.6782414497E-02
    9.5418689505E-02    9.4073706888E-02    9.2747282679E-02    9.1439237465E-02
    9.0149396586E-02    8.8877591153E-02    8.7623659518E-02    8.6387448100E-02
    8.5168811474E-02    8.3967612051E-02    8.2783719462E-02    8.1617009583E-02
    8.0467363195E-02    7.9334664274E-02    7.8218797913E-02    7.7119647943E-02
    7.6037094310E-02    7.4971010344E-02    7.3921260053E-02    7.2887695629E-02
    7.1870155326E-02    7.0868461892E-02    6.9882421655E-02    6.8911824347E-02
    6.7956443641E-02    6.7016038360E-02    6.6090354216E-02    6.5179125946E-02
    6.4282079671E-02    6.3398935343E-02    6.2529409126E-02    6.1673215640E-02
    6.0830069975E-02    5.9999689449E-02    5.9181795095E-02    5.8376112879E-02
    5.7582374662E-02    5.6800318935E-02    5.6029691354E-02    5.5270245101E-02
    5.4521741102E-02    5.3783948124E-02    5.3056642781E-02    5.2339609455E-02
    5.1632640166E-02    5.0935534390E-02    5.0248098852E-02    4.9570147284E-02
    4.8901500176E-02    4.8241984516E-02    4.7591433517E-02    4.6949686355E-02
    4.6316587899E-02    4.5691988453E-02    4.5075743496E-02    4.4467713434E-02
    4.3867763363E-02    4.3275762831E-02    4.2691585621E-02    4.2115109530E-02
    4.1546216173E-02    4.0984790777E-02    4.0430722006E-02    3.9883901771E-02
    3.9344225073E-02    3.8811589831E-02    3.8285896739E-02    3.7767049113E-02
    3.7254952760E-02    3.6749515842E-02    3.6250648758E-02    3.5758264023E-02
    3.5272276158E-02    3.4792601590E-02    3.4319158547E-02    3.3851866969E-02
    3.3390648419E-02    3.2935426001E-02    3.2486124278E-02    3.2042669206E-02
    3.1604988060E-02    3.1173009369E-02    3.0746662857E-02    3.0325879387E-02
    2.9910590906E-02    2.9500730395E-02    2.9096231823E-02    2.8697030105E-02
    2.8303061061E-02    2.7914261377E-02    2.7530568571E-02    2.7151920963E-02
    2.6778257641E-02    2.6409518438E-02    2.6045643900E-02    2.5686575271E-02
    2.5332254465E-02    2.4982624048E-02    2.4637627223E-02    2.4297207806E-02
    2.3961310219E-02    2.3629879472E-02    2.3302861151E-02    2.2980201407E-02
    2.2661846945E-02    2.2347745016E-02    2.2037843406E-02    2.1732090433E-02
    2.1430434935E-02    2.1132826266E-02    2.0839214291E-02    2.0549549378E-02
    2.0263782400E-02    1.9981864721E-02    1.9703748203E-02    1.9429385192E-02
    1.9158728523E-02    1.8891731513E-02    1.8628347961E-02    1.8368532140E-02
    1.8112238801E-02    1.7859423167E-02    1.7610040931E-02    1.7364048258E-02
    1.7121401774E-02    1.6882058573E-02    1.6645976211E-02    1.6413112702E-02
    1.6183426520E-02    1.5956876595E-02    1.5733422308E-02    1.5513023496E-02
    1.5295640440E-02    1.5081233872E-02    1.4869764967E-02    1.4661195340E-02
    1.4455487049E-02    1.4252602586E-02    1.4052504879E-02    1.3855157286E-02
    1.3660523594E-02    1.3468568016E-02    1.3279255188E-02    1.3092550164E-02
    1.2908418416E-02    1.2726825831E-02    1.2547738704E-02    1.2371123736E-02
    1.2196948036E-02    1.2025179110E-02    1.1855784862E-02    1.1688733588E-02
    1.1523993978E-02    1.1361535106E-02    1.1201326428E-02    1.1043337781E-02
    1.0887539379E-02    1.0733901807E-02    1.0582396018E-02    1.0432993332E-02
    1.0285665428E-02    1.0140384345E-02    9.9971224745E-03    9.8558525598E-03
    9.7165476899E-03    9.5791812971E-03    9.4437271532E-03    9.3101593656E-03
    9.1784523738E-03    9.0485809459E-03    8.9205201745E-03    8.7942454734E-03
    8.6697325742E-03    8.5469575221E-03    8.4258966730E-03    8.3065266893E-03
    8.1888245370E-03    8.0727674815E-03    7.9583330848E-03    7.8454992016E-03
    7.7342439758E-03    7.6245458373E-03    7.5163834986E-03    7.4097359514E-03
    7.3045824629E-03    7.2009025733E-03    7.0986760915E-03    6.9978830926E-03
    6.8985039145E-03    6.8005191544E-03    6.7039096660E-03    6.6086565561E-03
    6.5147411817E-03    6.4221451467E-03    6.3308502991E-03    6.2408387276E-03
    6.1520927590E-03    6.0645949551E-03    5.9783281097E-03    5.8932752458E-03
    5.8094196126E-03    5.7267446828E-03    5.6452341499E-03    5.5648719249E-03
    5.4856421343E-03    5.4075291167E-03    5.3305174207E-03    5.2545918017E-03
    5.1797372197E-03    5.1059388364E-03    5.0331820130E-03    4.9614523072E-03
    4.8907354710E-03    4.8210174482E-03    4.7522843718E-03    4.6845225617E-03
    4.6177185223E-03    4.5518589402E-03    4.4869306814E-03    4.4229207899E-03
    4.3598164843E-03    4.2976051565E-03    4.2362743690E-03    4.1758118527E-03
    4.1162055048E-03    4.0574433867E-03    3.9995137218E-03    3.9424048934E-03
    3.8861054427E-03    3.8306040665E-03    3.7758896156E-03    3.7219510923E-03
    3.6687776491E-03    3.6163585859E-03    3.5646833486E-03    3.5137415273E-03
    3.4635228540E-03    3.4140172011E-03    3.3652145792E-03    3.3171051357E-03
    3.2696791527E-03    3.2229270453E-03    3.1768393601E-03    3.1314067729E-03
    3.0866200878E-03    3.0424702346E-03    2.9989482679E-03    2.9560453651E-03
    2.9137528247E-03    2.8720620651E-03    2.8309646224E-03    2.7904521496E-03
    2.7505164142E-03    2.7111492973E-03    2.6723427922E-03    2.6340890021E-03
    2.5963801394E-03    2.5592085242E-03    2.5225665823E-03    2.4864468444E-03
    2.4508419445E-03    2.4157446181E-03    2.3811477018E-03    2.3470441309E-03
    2.3134269388E-03    2.2802892552E-03    2.2476243055E-03    2.2154254085E-03
    2.1836859762E-03    2.1523995116E-03    2.1215596084E-03    2.0911599490E-03
    2.0611943038E-03    2.0316565296E-03    2.0025405689E-03    1.9738404484E-03
    1.9455502782E-03    1.9176642500E-03    1.8901766369E-03    1.8630817916E-03
    1.8363741456E-03    1.8100482083E-03    1.7840985654E-03    1.7585198784E-03
    1.7333068836E-03    1.7084543904E-03    1.6839572812E-03    1.6598105096E-03
    1.6360091002E-03    1.6125481471E-03    1.5894228128E-03    1.5666283281E-03
    1.5441599902E-03    1.5220131624E-03    1.5001832730E-03    1.4786658144E-03
    1.4574563425E-03    1.4365504751E-03    1.4159438921E-03    1.3956323336E-03
    1.3756115999E-03    1.3558775502E-03    1.3364261020E-03    1.3172532301E-03
    1.2983549661E-03    1.2797273973E-03    1.2613666662E-03    1.2432689697E-03
    1.2254305582E-03    1.2078477349E-03    1.1905168551E-03    1.1734343257E-03
    1.1565966041E-03    1.1400001978E-03    1.1236416635E-03    1.1075176066E-03
    1.0916246804E-03    1.0759595856E-03    1.0605190692E-03    1.0452999247E-03
    1.0302989904E-03    1.0155131497E-03    1.0009393299E-03    9.8657450194E-04
    9.7241567946E-04    9.5845991851E-04    9.4470431677E-04    9.3114601307E-04
    9.1778218676E-04    9.0461005720E-04    8.9162688314E-04    8.7882996222E-04
    8.6621663040E-04    8.5378426145E-04    8.4153026639E-04    8.2945209301E-04
    8.1754722532E-04    8.0581318307E-04    7.9424752123E-04    7.8284782951E-04
    7.7161173188E-04    7.6053688607E-04    7.4962098312E-04    7.3886174689E-04
    7.2825693364E-04    7.1780433151E-04    7.0750176013E-04    6.9734707019E-04
    6.8733814292E-04    6.7747288976E-04    6.6774925187E-04    6.5816519973E-04
    6.4871873276E-04    6.3940787886E-04    6.3023069403E-04    6.2118526201E-04
    6.1226969383E-04    6.0348212746E-04    5.9482072745E-04    5.8628368450E-04
    5.7786921513E-04    5.6957556133E-04    5.6140099015E-04    5.5334379339E-04
    5.4540228725E-04    5.3757481194E-04    5.2985973141E-04    5.2225543295E-04
    5.1476032691E-04    5.0737284633E-04    5.0009144666E-04    4.9291460542E-04
    4.8584082188E-04    4.7886861680E-04    4.7199653204E-04    4.6522313037E-04
    4.5854699506E-04    4.5196672968E-04    4.4548095777E-04    4.3908832257E-04
    4.3278748672E-04    4.2657713203E-04    4.2045595914E-04    4.1442268732E-04
    4.0847605417E-04    4.0261481536E-04    3.9683774440E-04    3.9114363234E-04
    3.8553128757E-04    3.7999953554E-04    3.7454721853E-04    3.6917319542E-04
    3.6387634144E-04    3.5865554792E-04    3.5350972212E-04    3.4843778693E-04
    3.4343868070E-04    3.3851135702E-04    3.3365478445E-04    3.2886794637E-04
    3.2414984073E-04    3.1949947986E-04    3.1491589025E-04    3.1039811237E-04
    3.0594520046E-04    3.0155622231E-04    2.9723025911E-04    2.9296640523E-04
    2.8876376803E-04    2.8462146772E-04    2.8053863708E-04    2.7651442141E-04
    2.7254797823E-04    2.6863847717E-04    2.6478509981E-04    2.6098703945E-04
    2.5724350100E-04    2.5355370078E-04    2.4991686637E-04    2.4633223645E-04
    2.4279906064E-04    2.3931659933E-04    2.3588412356E-04    2.3250091481E-04
    2.2916626491E-04    2.2587947588E-04    2.2263985974E-04    2.1944673843E-04
    2.1629944360E-04    2.1319731655E-04    2.1013970802E-04    2.0712597810E-04
    2.0415549607E-04    2.0122764027E-04    1.9834179801E-04    1.9549736538E-04
    1.9269374718E-04    1.8993035674E-04    1.8720661586E-04    1.8452195463E-04
    1.8187581134E-04    1.7926763238E-04    1.7669687208E-04    1.7416299263E-04
    1.7166546396E-04    1.6920376362E-04    1.6677737668E-04    1.6438579561E-04
    1.6202852019E-04    1.5970505739E-04    1.5741492128E-04    1.5515763293E-04
    1.5293272028E-04    1.5073971808E-04    1.4857816778E-04    1.4644761739E-04
    1.4434762148E-04    1.4227774100E-04    1.4023754321E-04    1.3822660161E-04
    1.3624449584E-04    1.3429081160E-04    1.3236514052E-04    1.3046708014E-04
    1.2859623378E-04    1.2675221046E-04    1.2493462485E-04    1.2314309714E-04
    1.2137725302E-04    1.1963672353E-04    1.1792114505E-04    1.1623015917E-04
    1.1456341266E-04    1.1292055737E-04    1.1130125016E-04    1.0970515281E-04
    1.0813193200E-04    1.0658125919E-04    1.0505281058E-04    1.0354626701E-04
    1.0206131393E-04    1.0059764132E-04    9.9154943624E-05    9.7732919668E-05
    9.6331272628E-05    9.4949709947E-05    9.3587943281E-05    9.2245688435E-05
    9.0922665306E-05    8.9618597822E-05    8.8333213884E-05    8.7066245311E-05
    8.5817427781E-05    8.4586500776E-05    8.3373207529E-05    8.2177294968E-05
    8.0998513663E-05    7.9836617773E-05    7.8691364997E-05    7.7562516521E-05
    7.6449836966E-05    7.5353094343E-05    7.4272059998E-05    7.3206508572E-05
    7.2156217945E-05    7.1120969195E-05    7.0100546550E-05    6.9094737343E-05
    6.8103331968E-05    6.7126123832E-05    6.6162909317E-05    6.5213487734E-05
    6.4277661281E-05    6.3355235002E-05    6.2446016745E-05    6.1549817124E-05
    6.0666449476E-05    5.9795729823E-05    5.8937476834E-05    5.8091511787E-05
    5.7257658529E-05    5.6435743442E-05    5.5625595404E-05    5.4827045755E-05
    5.4039928259E-05    5.3264079073E-05    5.2499336708E-05    5.1745541998E-05
    5.1002538066E-05    5.0270170290E-05    4.9548286271E-05    4.8836735802E-05
    4.8135370835E-05    4.7444045449E-05    4.6762615823E-05    4.6090940202E-05
    4.5428878869E-05    4.4776294114E-05    4.4133050208E-05    4.3499013372E-05
    4.2874051749E-05    4.2258035378E-05    4.1650836163E-05    4.1052327852E-05
    4.0462386005E-05    3.9880887970E-05    3.9307712858E-05    3.8742741514E-05
    3.8185856499E-05    3.7636942058E-05    3.7095884098E-05    3.6562570167E-05
    3.6036889427E-05    3.5518732631E-05    3.5007992102E-05    3.4504561709E-05
    3.4008336843E-05    3.3519214400E-05    3.3037092753E-05    3.2561871737E-05
    3.2093452624E-05    3.1631738101E-05    3.1176632254E-05    3.0728040544E-05
    3.0285869792E-05    2.9850028152E-05    2.9420425098E-05    2.8996971404E-05
    2.8579579121E-05    2.8168161565E-05    2.7762633294E-05    2.7362910091E-05
    2.6968908948E-05    2.6580548049E-05    2.6197746748E-05    2.5820425558E-05
    2.5448506131E-05    2.5081911243E-05    2.4720564776E-05    2.4364391705E-05
    2.4013318079E-05    2.3667271007E-05    2.3326178645E-05    2.2989970177E-05
    2.2658575801E-05    2.2331926717E-05    2.2009955111E-05    2.1692594139E-05
    2.1379777916E-05    2.1071441501E-05    2.0767520883E-05    2.0467952967E-05
    2.0172675563E-05    1.9881627371E-05    1.9594747969E-05    1.9311977801E-05
    1.9033258163E-05    1.8758531192E-05    1.8487739852E-05    1.8220827926E-05
    1.7957739999E-05    1.7698421451E-05    1.7442818444E-05    1.7190877909E-05
    1.6942547537E-05    1.6697775768E-05    1.6456511780E-05    1.6218705476E-05
    1.5984307479E-05    1.5753269115E-05    1.5525542409E-05    1.5301080070E-05
    1.5079835485E-05    1.4861762706E-05    1.4646816443E-05    1.4434952054E-05
    1.4226125535E-05    1.4020293509E-05    1.3817413222E-05    1.3617442530E-05
    1.3420339892E-05    1.3226064358E-05    1.3034575566E-05    1.2845833731E-05
    1.2659799634E-05    1.2476434618E-05    1.2295700578E-05    1.2117559954E-05
    1.1941975721E-05    1.1768911384E-05    1.1598330968E-05    1.1430199014E-05
    1.1264480566E-05    1.1101141171E-05    1.0940146865E-05    1.0781464171E-05
    1.0625060086E-05    1.0470902084E-05    1.0318958098E-05    1.0169196522E-05
    1.0021586199E-05    9.8760964171E-06    9.7326969041E-06    9.5913578182E-06
    9.4520497436E-06    9.3147436844E-06    9.1794110584E-06    9.0460236909E-06
    8.9145538090E-06    8.7849740362E-06    8.6572573863E-06    8.5313772578E-06
    8.4073074287E-06    8.2850220508E-06    8.1644956445E-06    8.0457030933E-06
    7.9286196391E-06    7.8132208762E-06    7.6994827473E-06    7.5873815377E-06
    7.4768938708E-06    7.3679967030E-06    7.2606673193E-06    7.1548833282E-06
    7.0506226574E-06    6.9478635490E-06    6.8465845551E-06    6.7467645334E-06
    6.6483826428E-06    6.5514183389E-06    6.4558513702E-06    6.3616617735E-06
    6.2688298700E-06    6.1773362611E-06    6.0871618244E-06    5.9982877101E-06
    5.9106953365E-06    5.8243663867E-06    5.7392828044E-06    5.6554267906E-06
    5.5727807996E-06    5.4913275356E-06    5.4110499489E-06    5.3319312325E-06
    5.2539548188E-06    5.1771043758E-06    5.1013638044E-06    5.0267172341E-06
    4.9531490206E-06    4.8806437423E-06    4.8091861969E-06    4.7387613986E-06
    4.6693545747E-06    4.6009511630E-06    4.5335368083E-06    4.4670973597E-06
    4.4016188678E-06    4.3370875815E-06    4.2734899454E-06    4.2108125973E-06
    4.1490423646E-06    4.0881662625E-06    4.0281714908E-06    3.9690454315E-06
    3.9107756461E-06    3.8533498730E-06    3.7967560251E-06    3.7409821873E-06
    3.6860166140E-06    3.6318477266E-06    3.5784641113E-06    3.5258545168E-06
    3.4740078517E-06    3.4229131825E-06    3.3725597311E-06    3.3229368730E-06
    3.2740341347E-06    3.2258411916E-06    3.1783478661E-06    3.1315441255E-06
    3.0854200796E-06    3.0399659792E-06    2.9951722136E-06    2.9510293088E-06
    2.9075279259E-06    2.8646588585E-06    2.8224130315E-06    2.7807814987E-06
    2.7397554413E-06    2.6993261661E-06    2.6594851034E-06    2.6202238056E-06
    2.5815339452E-06    2.5434073134E-06    2.5058358180E-06    2.4688114822E-06
    2.4323264425E-06    2.3963729474E-06    2.3609433559E-06    2.3260301357E-06
    2.2916258614E-06    2.2577232139E-06    2.2243149777E-06    2.1913940406E-06
    2.1589533911E-06    2.1269861179E-06    2.0954854081E-06    2.0644445457E-06
    2.0338569104E-06    2.0037159762E-06    1.9740153099E-06    1.9447485703E-06
    1.9159095061E-06    1.8874919553E-06    1.8594898437E-06    1.8318971836E-06
    1.8047080726E-06    1.7779166924E-06    1.7515173076E-06    1.7255042646E-06
    1.6998719904E-06    1.6746149914E-06    1.6497278524E-06    1.6252052353E-06
    1.6010418780E-06    1.5772325938E-06    1.5537722696E-06    1.5306558655E-06
    1.5078784133E-06    1.4854350157E-06    1.4633208454E-06    1.4415311439E-06
    1.4200612205E-06    1.3989064516E-06    1.3780622795E-06    1.3575242115E-06
    1.3372878193E-06    1.3173487376E-06    1.2977026634E-06    1.2783453552E-06
    1.2592726322E-06    1.2404803733E-06    1.2219645160E-06    1.2037210563E-06
    1.1857460469E-06    1.1680355974E-06    1.1505858727E-06    1.1333930925E-06
    1.1164535309E-06    1.0997635148E-06    1.0833194240E-06    1.0671176899E-06
    1.0511547950E-06    1.0354272721E-06    1.0199317037E-06    1.0046647211E-06
    9.8962300384E-07    9.7480327903E-07    9.6020232063E-07    9.4581694879E-07
    9.3164402921E-07    9.1768047247E-07    9.0392323343E-07    8.9036931057E-07
    8.7701574541E-07    8.6385962185E-07    8.5089806561E-07    8.3812824361E-07
    8.2554736341E-07    8.1315267263E-07    8.0094145836E-07    7.8891104662E-07
    7.7705880181E-07    7.6538212615E-07    7.5387845917E-07    7.4254527715E-07
    7.3138009262E-07    7.2038045383E-07    7.0954394428E-07    6.9886818216E-07
    6.8835081991E-07    6.7798954371E-07    6.6778207301E-07    6.5772616006E-07
    6.4781958943E-07    6.3806017756E-07    6.2844577231E-07    6.1897425252E-07
    6.0964352756E-07    6.0045153689E-07    5.9139624965E-07    5.8247566424E-07
    5.7368780788E-07    5.6503073622E-07    5.5650253294E-07    5.4810130933E-07
    5.3982520393E-07    5.3167238212E-07    5.2364103572E-07    5.1572938267E-07
    5.0793566661E-07    5.0025815653E-07    4.9269514642E-07    4.8524495489E-07
    4.7790592486E-07    4.7067642316E-07    4.6355484024E-07    4.5653958980E-07
    4.4962910848E-07    4.4282185553E-07    4.3611631246E-07    4.2951098278E-07
    4.2300439163E-07    4.1659508551E-07    4.1028163195E-07    4.0406261923E-07
    3.9793665607E-07    3.9190237135E-07    3.8595841381E-07    3.8010345179E-07
    3.7433617292E-07    3.6865528386E-07    3.6305951005E-07    3.5754759538E-07
    3.5211830202E-07    3.4677041005E-07    3.4150271731E-07    3.3631403907E-07
    3.3120320782E-07    3.2616907301E-07    3.2121050079E-07    3.1632637383E-07
    3.1151559102E-07    3.0677706727E-07    3.0210973327E-07    2.9751253528E-07
    2.9298443489E-07    2.8852440881E-07    2.8413144865E-07    2.7980456070E-07
    2.7554276574E-07    2.7134509881E-07    2.6721060902E-07    2.6313835936E-07
    2.5912742645E-07    2.5517690042E-07    2.5128588465E-07    2.4745349561E-07
    2.4367886268E-07    2.3996112795E-07    2.3629944604E-07    2.3269298391E-07
    2.2914092072E-07    2.2564244762E-07    2.2219676756E-07    2.1880309519E-07
    2.1546065663E-07    2.1216868933E-07    2.0892644188E-07    2.0573317391E-07
    2.0258815587E-07    1.9949066889E-07    1.9644000467E-07    1.9343546524E-07
    1.9047636292E-07    1.8756202006E-07    1.8469176900E-07    1.8186495184E-07
    1.7908092035E-07    1.7633903582E-07    1.7363866893E-07    1.7097919957E-07
    1.6836001678E-07    1.6578051855E-07    1.6324011174E-07    1.6073821192E-07
    1.5827424327E-07    1.5584763842E-07    1.5345783836E-07    1.5110429233E-07
    1.4878645765E-07    1.4650379964E-07    1.4425579152E-07    1.4204191424E-07
    1.3986165643E-07    1.3771451424E-07    1.3559999125E-07    1.3351759839E-07
    1.3146685378E-07    1.2944728267E-07    1.2745841730E-07    1.2549979685E-07
    1.2357096727E-07    1.2167148124E-07    1.1980089806E-07    1.1795878353E-07
    1.1614470988E-07    1.1435825567E-07    1.1259900568E-07    1.1086655086E-07
    1.0916048819E-07    1.0748042064E-07    1.0582595706E-07    1.0419671207E-07
    1.0259230604E-07    1.0101236494E-07    9.9456520294E-08    9.7924409097E-08
    9.6415673724E-08    9.4929961862E-08    9.3466926424E-08    9.2026225479E-08
    9.0607522175E-08    8.9210484665E-08    8.7834786032E-08    8.6480104221E-08
    8.5146121963E-08    8.3832526709E-08    8.2539010561E-08    8.1265270202E-08
    8.0011006828E-08    7.8775926086E-08    7.7559738007E-08    7.6362156941E-08
    7.5182901493E-08    7.4021694464E-08    7.2878262788E-08    7.1752337469E-08
    7.0643653525E-08    6.9551949927E-08    6.8476969543E-08    6.7418459078E-08
    6.6376169019E-08    6.5349853581E-08    6.4339270651E-08    6.3344181733E-08
    6.2364351897E-08    6.1399549724E-08    6.0449547259E-08    5.9514119953E-08
    5.8593046621E-08    5.7686109386E-08    5.6793093633E-08    5.5913787961E-08
    5.5047984136E-08    5.4195477044E-08    5.3356064643E-08    5.2529547922E-08
    5.1715730853E-08    5.0914420348E-08    5.0125426214E-08    4.9348561115E-08
    4.8583640523E-08    4.7830482684E-08    4.7088908571E-08    4.6358741846E-08
    4.5639808822E-08    4.4931938419E-08    4.4234962133E-08    4.3548713988E-08
    4.2873030510E-08    4.2207750679E-08    4.1552715900E-08    4.0907769965E-08
    4.0272759018E-08    3.9647531518E-08    3.9031938207E-08    3.8425832075E-08
    3.7829068329E-08    3.7241504357E-08    3.6662999696E-08    3.6093416002E-08
    3.5532617019E-08    3.4980468544E-08    3.4436838401E-08    3.3901596407E-08
    3.3374614348E-08    3.2855765941E-08    3.2344926815E-08    3.1841974476E-08
    3.1346788280E-08    3.0859249408E-08    3.0379240837E-08    2.9906647314E-08
    2.9441355328E-08    2.8983253086E-08    2.8532230487E-08    2.8088179096E-08
    2.7650992119E-08    2.7220564381E-08    2.6796792297E-08    2.6379573855E-08
    2.5968808585E-08    2.5564397542E-08    2.5166243281E-08    2.4774249834E-08
    2.4388322687E-08    2.4008368763E-08    2.3634296394E-08    2.3266015306E-08
    2.2903436593E-08    2.2546472699E-08    2.2195037400E-08    2.1849045780E-08
    2.1508414212E-08    2.1173060343E-08    2.0842903067E-08    2.0517862516E-08
    2.0197860034E-08    1.9882818161E-08    1.9572660616E-08    1.9267312278E-08
    1.8966699171E-08    1.8670748443E-08    1.8379388352E-08    1.8092548249E-08
    1.7810158561E-08    1.7532150773E-08    1.7258457417E-08    1.6989012050E-08
    1.6723749246E-08    1.6462604573E-08    1.6205514582E-08    1.5952416794E-08
    1.5703249681E-08    1.5457952655E-08    1.5216466053E-08    1.4978731120E-08
    1.4744690003E-08    1.4514285728E-08    1.4287462194E-08    1.4064164155E-08
    1.3844337212E-08    1.3627927793E-08    1.3414883151E-08    1.3205151339E-08
    1.2998681209E-08    1.2795422394E-08    1.2595325296E-08    1.2398341078E-08
    1.2204421650E-08    1.2013519657E-08    1.1825588471E-08    1.1640582174E-08
    1.1458455557E-08    1.1279164098E-08    1.1102663961E-08    1.0928911979E-08
    1.0757865650E-08    1.0589483119E-08    1.0423723177E-08    1.0260545244E-08
    1.0099909364E-08    9.9417761939E-09    9.7861069929E-09    9.6328636159E-09
    9.4820085030E-09    9.3335046710E-09    9.1873157043E-09    9.0434057467E-09
    8.9017394927E-09    8.7622821791E-09    8.6249995769E-09    8.4898579830E-09
    8.3568242125E-09    8.2258655905E-09    8.0969499444E-09    7.9700455966E-09
    7.8451213566E-09    7.7221465135E-09    7.6010908292E-09    7.4819245307E-09
    7.3646183034E-09    7.2491432838E-09    7.1354710527E-09    7.0235736288E-09
    6.9134234615E-09    6.8049934246E-09    6.6982568097E-09    6.5931873202E-09
    6.4897590646E-09    6.3879465503E-09    6.2877246778E-09    6.1890687348E-09
    6.0919543896E-09    5.9963576863E-09    5.9022550381E-09    5.8096232223E-09
    5.7184393743E-09    5.6286809827E-09    5.5403258832E-09    5.4533522538E-09
    5.3677386096E-09    5.2834637970E-09    5.2005069895E-09    5.1188476822E-09
    5.0384656867E-09    4.9593411270E-09    4.8814544337E-09    4.8047863403E-09
    4.7293178779E-09    4.6550303709E-09    4.5819054323E-09    4.5099249597E-09
    4.4390711305E-09    4.3693263978E-09    4.3006734863E-09    4.2330953878E-09
    4.1665753574E-09    4.1010969094E-09    4.0366438133E-09    3.9732000896E-09
    3.9107500066E-09    3.8492780760E-09    3.7887690493E-09    3.7292079145E-09
    3.6705798919E-09    3.6128704309E-09    3.5560652062E-09    3.5001501148E-09
    3.4451112722E-09    3.3909350090E-09    3.3376078678E-09    3.2851165999E-09
    3.2334481622E-09    3.1825897137E-09    3.1325286125E-09    3.0832524132E-09
    3.0347488631E-09    2.9870059000E-09    2.9400116486E-09    2.8937544180E-09
    2.8482226990E-09    2.8034051608E-09    2.7592906487E-09    2.7158681812E-09
    2.6731269473E-09    2.6310563041E-09    2.5896457739E-09    2.5488850417E-09
    2.5087639529E-09    2.4692725109E-09    2.4304008740E-09    2.3921393540E-09
    2.3544784129E-09    2.3174086613E-09    2.2809208556E-09    2.2450058961E-09
    2.2096548245E-09    2.1748588219E-09    2.1406092066E-09    2.1068974320E-09
    2.0737150844E-09    2.0410538812E-09    2.0089056685E-09    1.9772624196E-09
    1.9461162324E-09    1.9154593280E-09    1.8852840488E-09    1.8555828561E-09
    1.8263483289E-09    1.7975731616E-09    1.7692501626E-09    1.7413722521E-09
    1.7139324607E-09    1.6869239276E-09    1.6603398991E-09    1.6341737264E-09
    1.6084188647E-09    1.5830688709E-09    1.5581174026E-09    1.5335582162E-09
    1.5093851654E-09    1.4855921999E-09    1.4621733636E-09    1.4391227933E-09
    1.4164347175E-09    1.3941034544E-09    1.3721234112E-09    1.3504890822E-09
    1.3291950475E-09    1.3082359719E-09    1.2876066037E-09    1.2673017727E-09
    1.2473163899E-09    1.2276454454E-09    1.2082840077E-09    1.1892272224E-09
    1.1704703106E-09    1.1520085684E-09    1.1338373651E-09    1.1159521425E-09
    1.0983484136E-09    1.0810217614E-09    1.0639678380E-09    1.0471823635E-09
    1.0306611247E-09    1.0143999746E-09    9.9839483060E-10    9.8264167424E-10
    9.6713654976E-10    9.5187556325E-10    9.3685488172E-10    9.2207073210E-10
    9.0751940035E-10    8.9319723049E-10    8.7910062377E-10    8.6522603770E-10
    8.5156998523E-10    8.3812903387E-10    8.2489980483E-10    8.1187897221E-10
    7.9906326214E-10    7.8644945201E-10    7.7403436963E-10    7.6181489250E-10
    7.4978794697E-10    7.3795050753E-10    7.2629959604E-10    7.1483228099E-10
    7.0354567678E-10    6.9243694299E-10    6.8150328372E-10    6.7074194683E-10
    6.6015022331E-10    6.4972544658E-10    6.3946499185E-10    6.2936627544E-10
    6.1942675417E-10    6.0964392470E-10    6.0001532294E-10    5.9053852340E-10
    5.8121113862E-10    5.7203081856E-10    5.6299525002E-10    5.5410215606E-10
    5.4534929546E-10    5.3673446211E-10    5.2825548452E-10    5.1991022524E-10
    5.1169658036E-10    5.0361247893E-10    4.9565588253E-10    4.8782478467E-10
    4.8011721038E-10    4.7253121563E-10    4.6506488694E-10    4.5771634081E-10
    4.5048372332E-10    4.4336520963E-10    4.3635900354E-10    4.2946333706E-10
    4.2267646992E-10    4.1599668919E-10    4.0942230882E-10    4.0295166922E-10
    3.9658313688E-10    3.9031510390E-10    3.8414598766E-10    3.7807423039E-10
    3.7209829875E-10    3.6621668352E-10    3.6042789916E-10    3.5473048347E-10
    3.4912299722E-10    3.4360402378E-10    3.3817216878E-10    3.3282605976E-10
    3.2756434581E-10    3.2238569726E-10    3.1728880533E-10    3.1227238179E-10
    3.0733515869E-10    3.0247588797E-10    2.9769334120E-10    2.9298630927E-10
    2.8835360206E-10    2.8379404816E-10    2.7930649458E-10    2.7488980645E-10
    2.7054286675E-10    2.6626457602E-10    2.6205385209E-10    2.5790962979E-10
    2.5383086074E-10    2.4981651300E-10    2.4586557089E-10    2.4197703469E-10
    2.3814992042E-10    2.3438325956E-10    2.3067609884E-10    2.2702749998E-10
    2.2343653946E-10    2.1990230829E-10    2.1642391178E-10    2.1300046932E-10
    2.0963111417E-10    2.0631499321E-10    2.0305126674E-10    1.9983910831E-10
    1.9667770443E-10    1.9356625446E-10    1.9050397033E-10    1.8749007639E-10
    1.8452380918E-10    1.8160441730E-10    1.7873116113E-10    1.7590331273E-10
    1.7312015561E-10    1.7038098455E-10    1.6768510546E-10    1.6503183516E-10
    1.6242050123E-10    1.5985044184E-10    1.5732100559E-10    1.5483155134E-10
    1.5238144804E-10    1.4997007458E-10    1.4759681964E-10    1.4526108153E-10
    1.4296226803E-10    1.4069979626E-10    1.3847309251E-10    1.3628159213E-10
    1.3412473934E-10    1.3200198715E-10    1.2991279716E-10    1.2785663946E-10
    1.2583299249E-10    1.2384134294E-10    1.2188118554E-10    1.1995202302E-10
    1.1805336593E-10    1.1618473254E-10    1.1434564872E-10    1.1253564780E-10
    1.1075427048E-10    1.0900106469E-10    1.0727558549E-10    1.0557739496E-10
    1.0390606209E-10    1.0226116263E-10    1.0064227907E-10    9.9049000445E-11
    9.7480922292E-11    9.5937646516E-11    9.4418781303E-11    9.2923941018E-11
    9.1452746106E-11    9.0004823002E-11    8.8579804029E-11    8.7177327313E-11
    8.5797036685E-11    8.4438581595E-11    8.3101617024E-11    8.1785803395E-11
    8.0490806488E-11    7.9216297355E-11    7.7961952240E-11    7.6727452493E-11
    7.5512484492E-11    7.4316739564E-11    7.3139913907E-11    7.1981708511E-11
    7.0841829087E-11    6.9719985987E-11    6.8615894137E-11    6.7529272961E-11
    6.6459846311E-11    6.5407342396E-11    6.4371493716E-11    6.3352036995E-11
    6.2348713109E-11    6.1361267027E-11    6.0389447742E-11    5.9433008211E-11
    5.8491705289E-11    5.7565299672E-11    5.6653555832E-11    5.5756241960E-11
    5.4873129906E-11    5.4003995124E-11    5.3148616613E-11    5.2306776860E-11
    5.1478261789E-11    5.0662860702E-11    4.9860366229E-11    4.9070574277E-11
    4.8293283972E-11    4.7528297615E-11    4.6775420630E-11    4.6034461511E-11
    4.5305231779E-11    4.4587545931E-11    4.3881221395E-11    4.3186078481E-11
    4.2501940340E-11    4.1828632914E-11    4.1165984895E-11    4.0513827683E-11
    3.9871995339E-11    3.9240324547E-11    3.8618654570E-11    3.8006827213E-11
    3.7404686777E-11    3.6812080026E-11    3.6228856143E-11    3.5654866694E-11
    3.5089965592E-11    3.4534009057E-11    3.3986855582E-11    3.3448365895E-11
    3.2918402925E-11    3.2396831769E-11    3.1883519654E-11    3.1378335905E-11
    3.0881151913E-11    3.0391841102E-11    2.9910278897E-11    2.9436342689E-11
    2.8969911811E-11    2.8510867501E-11    2.8059092873E-11    2.7614472891E-11
    2.7176894337E-11    2.6746245781E-11    2.6322417556E-11    2.5905301729E-11
    2.5494792073E-11    2.5090784038E-11    2.4693174730E-11    2.4301862881E-11
    2.3916748823E-11    2.3537734464E-11    2.3164723264E-11    2.2797620209E-11
    2.2436331787E-11    2.2080765964E-11    2.1730832162E-11    2.1386441236E-11
    2.1047505449E-11    2.0713938453E-11    2.0385655264E-11    2.0062572244E-11
    1.9744607075E-11    1.9431678743E-11    1.9123707514E-11    1.8820614915E-11
    1.8522323716E-11    1.8228757906E-11    1.7939842678E-11    1.7655504406E-11
    1.7375670631E-11    1.7100270039E-11    1.6829232444E-11    1.6562488770E-11
    1.6299971034E-11    1.6041612328E-11    1.5787346804E-11    1.5537109653E-11
    1.5290837094E-11    1.5048466352E-11    1.4809935647E-11    1.4575184177E-11
    1.4344152101E-11    1.4116780524E-11    1.3893011483E-11    1.3672787934E-11
    1.3456053734E-11    1.3242753627E-11    1.3032833234E-11    1.2826239035E-11
    1.2622918356E-11    1.2422819359E-11    1.2225891023E-11    1.2032083137E-11
    1.1841346284E-11    1.1653631828E-11    1.1468891903E-11    1.1287079401E-11
    1.1108147959E-11    1.0932051948E-11    1.0758746461E-11    1.0588187301E-11
    1.0420330973E-11    1.0255134666E-11    1.0092556251E-11    9.9325542637E-12
    9.7750878954E-12    9.6201169844E-12    9.4676020045E-12    9.3175040550E-12
    9.1697848508E-12    9.0244067131E-12    8.8813325593E-12    8.7405258937E-12
    8.6019507985E-12    8.4655719243E-12    8.3313544815E-12    8.1992642308E-12
    8.0692674754E-12    7.9413310517E-12    7.8154223209E-12    7.6915091612E-12
    7.5695599594E-12    7.4495436024E-12    7.3314294699E-12    7.2151874265E-12
    7.1007878136E-12    6.9882014424E-12    6.8773995861E-12    6.7683539729E-12
    6.6610367784E-12    6.5554206188E-12    6.4514785440E-12    6.3491840306E-12
    6.2485109750E-12    6.1494336871E-12    6.0519268835E-12    5.9559656811E-12
    5.8615255909E-12    5.7685825118E-12    5.6771127241E-12    5.5870928838E-12
    5.4985000167E-12    5.4113115121E-12    5.3255051176E-12    5.2410589332E-12
    5.1579514057E-12    5.0761613231E-12    4.9956678094E-12    4.9164503193E-12
    4.8384886328E-12    4.7617628500E-12    4.6862533865E-12    4.6119409677E-12
   </PP_CHI.1>
   <PP_CHI.2
       type="real"
       size="1940"
       columns="4"
       index="2"
       occupation=" 6.000"
       pseudo_energy="   -0.1430148319E+01"
       label="5P"
       l="1" >
   -1.2954145135E-12    7.3260601205E-06    2.9415398536E-05    6.6601195282E-05
    1.1943777066E-04    1.8869911790E-04    2.7537685341E-04    3.8067758923E-04
    5.0601973349E-04    6.5302972606E-04    8.2353771776E-04    1.0195727029E-03
    1.2433571161E-03    1.4973009054E-03    1.7839950960E-03    2.1062048574E-03
    2.4668620929E-03    2.8690575650E-03    3.3160325782E-03    3.8111702362E-03
    4.3579862957E-03    4.9601196373E-03    5.6213223768E-03    6.3454496401E-03
    7.1364490272E-03    7.9983497889E-03    8.9352517453E-03    9.9513139705E-03
    1.1050743274E-02    1.2237782503E-02    1.3516698705E-02    1.4891771162E-02
    1.6367279349E-02    1.7947490829E-02    1.9636649122E-02    2.1438961588E-02
    2.3358587330E-02    2.5399625182E-02    2.7566101784E-02    2.9861959790E-02
    3.2291046236E-02    3.4857101094E-02    3.7563746054E-02    4.0414473545E-02
    4.3412636039E-02    4.6561435661E-02    4.9863914122E-02    5.3322943021E-02
    5.6941214521E-02    6.0721232436E-02    6.4665303741E-02    6.8775530537E-02
    7.3053802486E-02    7.7501789727E-02    8.2120936309E-02    8.6912454131E-02
    9.1877317428E-02    9.7016257799E-02    1.0232975979E-01    1.0781805706E-01
    1.1348112909E-01    1.1931869850E-01    1.2533022894E-01    1.3151492358E-01
    1.3787172414E-01    1.4439931059E-01    1.5109610133E-01    1.5796025406E-01
    1.6498966711E-01    1.7218198145E-01    1.7953458315E-01    1.8704460648E-01
    1.9470893745E-01    2.0252421801E-01    2.1048685059E-01    2.1859300328E-01
    2.2683861539E-01    2.3521940354E-01    2.4373086813E-01    2.5236830030E-01
    2.6112678921E-01    2.7000122979E-01    2.7898633081E-01    2.8807662326E-01
    2.9726646912E-01    3.0655007035E-01    3.1592147821E-01    3.2537460280E-01
    3.3490322283E-01    3.4450099561E-01    3.5416146716E-01    3.6387808260E-01
    3.7364419648E-01    3.8345308344E-01    3.9329794877E-01    4.0317193913E-01
    4.1306815327E-01    4.2297965283E-01    4.3289947301E-01    4.4282063336E-01
    4.5273614839E-01    4.6263903822E-01    4.7252233904E-01    4.8237911353E-01
    4.9220246116E-01    5.0198552822E-01    5.1172151785E-01    5.2140369977E-01
    5.3102541983E-01    5.4058010935E-01    5.5006129423E-01    5.5946260377E-01
    5.6877777929E-01    5.7800068238E-01    5.8712530292E-01    5.9614576678E-01
    6.0505634316E-01    6.1385145165E-01    6.2252566892E-01    6.3107373506E-01
    6.3949055952E-01    6.4777122676E-01    6.5591100148E-01    6.6390533341E-01
    6.7174986181E-01    6.7944041948E-01    6.8697303647E-01    6.9434394326E-01
    7.0154957367E-01    7.0858656722E-01    7.1545177122E-01    7.2214224162E-01
    7.2865524303E-01    7.3498824977E-01    7.4113894661E-01    7.4710522903E-01
    7.5288520281E-01    7.5847718323E-01    7.6387969381E-01    7.6909146458E-01
    7.7411143017E-01    7.7893872736E-01    7.8357269246E-01    7.8801285831E-01
    7.9225895101E-01    7.9631088636E-01    8.0016876598E-01    8.0383287320E-01
    8.0730366863E-01    8.1058178550E-01    8.1366802480E-01    8.1656335016E-01
    8.1926888254E-01    8.2178589482E-01    8.2411580613E-01    8.2626017613E-01
    8.2822069914E-01    8.2999919823E-01    8.3159761912E-01    8.3301802422E-01
    8.3426258646E-01    8.3533358326E-01    8.3623339043E-01    8.3696447614E-01
    8.3752939492E-01    8.3793078183E-01    8.3817134657E-01    8.3825386786E-01
    8.3818118789E-01    8.3795620686E-01    8.3758187782E-01    8.3706120160E-01
    8.3639722194E-01    8.3559302092E-01    8.3465171447E-01    8.3357644831E-01
    8.3237039394E-01    8.3103674504E-01    8.2957871408E-01    8.2799952922E-01
    8.2630243146E-01    8.2449067141E-01    8.2256749161E-01    8.2053609342E-01
    8.1839963062E-01    8.1616120873E-01    8.1382388466E-01    8.1139066640E-01
    8.0886451277E-01    8.0624833337E-01    8.0354498856E-01    8.0075728949E-01
    7.9788799821E-01    7.9493982786E-01    7.9191544289E-01    7.8881745930E-01
    7.8564844492E-01    7.8241091978E-01    7.7910735640E-01    7.7574018020E-01
    7.7231176988E-01    7.6882445786E-01    7.6528053066E-01    7.6168222940E-01
    7.5803175022E-01    7.5433124480E-01    7.5058282080E-01    7.4678854238E-01
    7.4295043072E-01    7.3907046450E-01    7.3515058046E-01    7.3119267388E-01
    7.2719859916E-01    7.2317017031E-01    7.1910916155E-01    7.1501730778E-01
    7.1089630515E-01    7.0674781162E-01    7.0257344749E-01    6.9837479591E-01
    6.9415340347E-01    6.8991078070E-01    6.8564840259E-01    6.8136770918E-01
    6.7707010600E-01    6.7275696467E-01    6.6842962334E-01    6.6408938726E-01
    6.5973752925E-01    6.5537529019E-01    6.5100387952E-01    6.4662447572E-01
    6.4223822680E-01    6.3784625072E-01    6.3344963588E-01    6.2904944158E-01
    6.2464669845E-01    6.2024240885E-01    6.1583754735E-01    6.1143306113E-01
    6.0702987038E-01    6.0262886870E-01    5.9823092346E-01    5.9383687635E-01
    5.8944754360E-01    5.8506371641E-01    5.8068616133E-01    5.7631562062E-01
    5.7195281266E-01    5.6759843228E-01    5.6325315113E-01    5.5891761809E-01
    5.5459245963E-01    5.5027828014E-01    5.4597566242E-01    5.4168516799E-01
    5.3740733754E-01    5.3314269134E-01    5.2889172969E-01    5.2465493338E-01
    5.2043276414E-01    5.1622566517E-01    5.1203406162E-01    5.0785836120E-01
    5.0369895468E-01    4.9955621652E-01    4.9543050548E-01    4.9132216525E-01
    4.8723152511E-01    4.8315890060E-01    4.7910459421E-01    4.7506889601E-01
    4.7105208439E-01    4.6705442665E-01    4.6307617966E-01    4.5911759046E-01
    4.5517889676E-01    4.5126032749E-01    4.4736210314E-01    4.4348443616E-01
    4.3962753120E-01    4.3579158526E-01    4.3197678781E-01    4.2818332074E-01
    4.2441135834E-01    4.2066106709E-01    4.1693260547E-01    4.1322612369E-01
    4.0954176342E-01    4.0587965749E-01    4.0223992957E-01    3.9862269394E-01
    3.9502805530E-01    3.9145610860E-01    3.8790693901E-01    3.8438062203E-01
    3.8087722365E-01    3.7739680070E-01    3.7393940137E-01    3.7050506584E-01
    3.6709382712E-01    3.6370571199E-01    3.6034074213E-01    3.5699893531E-01
    3.5368030668E-01    3.5038487005E-01    3.4711263920E-01    3.4386362894E-01
    3.4063785587E-01    3.3743533977E-01    3.3425610287E-01    3.3110016487E-01
    3.2796753899E-01    3.2485823141E-01    3.2177224158E-01    3.1870956257E-01
    3.1567018131E-01    3.1265407886E-01    3.0966123068E-01    3.0669160687E-01
    3.0374517241E-01    3.0082188741E-01    2.9792170732E-01    2.9504458315E-01
    2.9219046170E-01    2.8935928574E-01    2.8655099424E-01    2.8376552253E-01
    2.8100280252E-01    2.7826276289E-01    2.7554532922E-01    2.7285042423E-01
    2.7017796791E-01    2.6752787769E-01    2.6490006864E-01    2.6229445358E-01
    2.5971094331E-01    2.5714944668E-01    2.5460987082E-01    2.5209212127E-01
    2.4959610212E-01    2.4712171616E-01    2.4466886507E-01    2.4223744954E-01
    2.3982736940E-01    2.3743852384E-01    2.3507081149E-01    2.3272413062E-01
    2.3039837930E-01    2.2809345551E-01    2.2580925737E-01    2.2354568325E-01
    2.2130263196E-01    2.1908000296E-01    2.1687769647E-01    2.1469561373E-01
    2.1253365715E-01    2.1039173055E-01    2.0826973934E-01    2.0616759080E-01
    2.0408519427E-01    2.0202246144E-01    1.9997930664E-01    1.9795564713E-01
    1.9595140340E-01    1.9396649956E-01    1.9200086383E-01    1.9005442872E-01
    1.8812713147E-01    1.8621891553E-01    1.8432973281E-01    1.8245954506E-01
    1.8060832428E-01    1.7877605247E-01    1.7696272104E-01    1.7516832961E-01
    1.7339288422E-01    1.7163639498E-01    1.6989887309E-01    1.6818032728E-01
    1.6648075986E-01    1.6480016241E-01    1.6313851143E-01    1.6149576419E-01
    1.5987185499E-01    1.5826669226E-01    1.5668015654E-01    1.5511209958E-01
    1.5356234454E-01    1.5203068731E-01    1.5051689871E-01    1.4902072735E-01
    1.4754190304E-01    1.4608014036E-01    1.4463514228E-01    1.4320660365E-01
    1.4179421443E-01    1.4039766255E-01    1.3901663646E-01    1.3765082719E-01
    1.3629993018E-01    1.3496364665E-01    1.3364168471E-01    1.3233376021E-01
    1.3103959732E-01    1.2975892895E-01    1.2849149702E-01    1.2723705251E-01
    1.2599535553E-01    1.2476617521E-01    1.2354928956E-01    1.2234448527E-01
    1.2115155747E-01    1.1997030951E-01    1.1880055259E-01    1.1764210557E-01
    1.1649479459E-01    1.1535845277E-01    1.1423291996E-01    1.1311804239E-01
    1.1201367235E-01    1.1091966798E-01    1.0983589289E-01    1.0876221597E-01
    1.0769851104E-01    1.0664465667E-01    1.0560053588E-01    1.0456603590E-01
    1.0354104800E-01    1.0252546717E-01    1.0151919201E-01    1.0052212445E-01
    9.9534169595E-02    9.8555235547E-02    9.7585233198E-02    9.6624076081E-02
    9.5671680207E-02    9.4727963908E-02    9.3792847697E-02    9.2866254124E-02
    9.1948107647E-02    9.1038334507E-02    9.0136862611E-02    8.9243621419E-02
    8.8358541835E-02    8.7481556113E-02    8.6612597758E-02    8.5751601441E-02
    8.4898502909E-02    8.4053238915E-02    8.3215747139E-02    8.2385966118E-02
    8.1563835189E-02    8.0749294422E-02    7.9942284567E-02    7.9142747002E-02
    7.8350623690E-02    7.7565857126E-02    7.6788390306E-02    7.6018166684E-02
    7.5255130140E-02    7.4499224950E-02    7.3750395759E-02    7.3008587553E-02
    7.2273745639E-02    7.1545815625E-02    7.0824743400E-02    7.0110475123E-02
    6.9402957205E-02    6.8702136299E-02    6.8007959289E-02    6.7320373285E-02
    6.6639325613E-02    6.5964763811E-02    6.5296635622E-02    6.4634888997E-02
    6.3979472086E-02    6.3330333242E-02    6.2687421018E-02    6.2050684167E-02
    6.1420071648E-02    6.0795532622E-02    6.0177016455E-02    5.9564472725E-02
    5.8957851221E-02    5.8357101947E-02    5.7762175127E-02    5.7173021208E-02
    5.6589590863E-02    5.6011834998E-02    5.5439704753E-02    5.4873151508E-02
    5.4312126887E-02    5.3756582760E-02    5.3206471253E-02    5.2661744744E-02
    5.2122355874E-02    5.1588257548E-02    5.1059402936E-02    5.0535745484E-02
    5.0017238908E-02    4.9503837207E-02    4.8995494658E-02    4.8492165825E-02
    4.7993805555E-02    4.7500368990E-02    4.7011811562E-02    4.6528088996E-02
    4.6049157316E-02    4.5574972843E-02    4.5105492201E-02    4.4640672312E-02
    4.4180470403E-02    4.3724844008E-02    4.3273750963E-02    4.2827149412E-02
    4.2384997806E-02    4.1947254904E-02    4.1513879774E-02    4.1084831792E-02
    4.0660070642E-02    4.0239556319E-02    3.9823249126E-02    3.9411109673E-02
    3.9003098881E-02    3.8599177978E-02    3.8199308499E-02    3.7803452286E-02
    3.7411571488E-02    3.7023628560E-02    3.6639586259E-02    3.6259407649E-02
    3.5883056095E-02    3.5510495263E-02    3.5141689121E-02    3.4776601934E-02
    3.4415198269E-02    3.4057442986E-02    3.3703301241E-02    3.3352738487E-02
    3.3005720464E-02    3.2662213209E-02    3.2322183044E-02    3.1985596582E-02
    3.1652420720E-02    3.1322622641E-02    3.0996169812E-02    3.0673029978E-02
    3.0353171169E-02    3.0036561688E-02    2.9723170116E-02    2.9412965312E-02
    2.9105916401E-02    2.8801992786E-02    2.8501164134E-02    2.8203400383E-02
    2.7908671734E-02    2.7616948654E-02    2.7328201870E-02    2.7042402372E-02
    2.6759521405E-02    2.6479530473E-02    2.6202401335E-02    2.5928106000E-02
    2.5656616731E-02    2.5387906040E-02    2.5121946685E-02    2.4858711670E-02
    2.4598174244E-02    2.4340307897E-02    2.4085086360E-02    2.3832483600E-02
    2.3582473824E-02    2.3335031471E-02    2.3090131214E-02    2.2847747958E-02
    2.2607856836E-02    2.2370433209E-02    2.2135452665E-02    2.1902891014E-02
    2.1672724290E-02    2.1444928747E-02    2.1219480859E-02    2.0996357314E-02
    2.0775535019E-02    2.0556991093E-02    2.0340702867E-02    2.0126647883E-02
    1.9914803890E-02    1.9705148846E-02    1.9497660912E-02    1.9292318456E-02
    1.9089100044E-02    1.8887984444E-02    1.8688950624E-02    1.8491977747E-02
    1.8297045173E-02    1.8104132454E-02    1.7913219336E-02    1.7724285755E-02
    1.7537311835E-02    1.7352277890E-02    1.7169164418E-02    1.6987952101E-02
    1.6808621805E-02    1.6631154577E-02    1.6455531645E-02    1.6281734412E-02
    1.6109744461E-02    1.5939543549E-02    1.5771113607E-02    1.5604436738E-02
    1.5439495216E-02    1.5276271486E-02    1.5114748157E-02    1.4954908009E-02
    1.4796733985E-02    1.4640209191E-02    1.4485316897E-02    1.4332040533E-02
    1.4180363688E-02    1.4030270110E-02    1.3881743704E-02    1.3734768529E-02
    1.3589328799E-02    1.3445408880E-02    1.3302993292E-02    1.3162066700E-02
    1.3022613924E-02    1.2884619925E-02    1.2748069815E-02    1.2612948849E-02
    1.2479242426E-02    1.2346936086E-02    1.2216015511E-02    1.2086466523E-02
    1.1958275082E-02    1.1831427287E-02    1.1705909370E-02    1.1581707701E-02
    1.1458808781E-02    1.1337199245E-02    1.1216865859E-02    1.1097795519E-02
    1.0979975250E-02    1.0863392204E-02    1.0748033662E-02    1.0633887028E-02
    1.0520939830E-02    1.0409179722E-02    1.0298594477E-02    1.0189171991E-02
    1.0080900278E-02    9.9737674739E-03    9.8677618288E-03    9.7628717114E-03
    9.6590856051E-03    9.5563921084E-03    9.4547799326E-03    9.3542379017E-03
    9.2547549510E-03    9.1563201260E-03    9.0589225815E-03    8.9625515807E-03
    8.8671964937E-03    8.7728467973E-03    8.6794920733E-03    8.5871220079E-03
    8.4957263904E-03    8.4052951127E-03    8.3158181680E-03    8.2272856499E-03
    8.1396877515E-03    8.0530147645E-03    7.9672570783E-03    7.8824051789E-03
    7.7984496481E-03    7.7153811625E-03    7.6331904930E-03    7.5518685034E-03
    7.4714061497E-03    7.3917944793E-03    7.3130246301E-03    7.2350878295E-03
    7.1579753939E-03    7.0816787275E-03    7.0061893214E-03    6.9314987532E-03
    6.8575986858E-03    6.7844808667E-03    6.7121371273E-03    6.6405593818E-03
    6.5697396268E-03    6.4996699401E-03    6.4303424802E-03    6.3617494854E-03
    6.2938832732E-03    6.2267362392E-03    6.1603008567E-03    6.0945696756E-03
    6.0295353222E-03    5.9651904977E-03    5.9015279781E-03    5.8385406132E-03
    5.7762213259E-03    5.7145631117E-03    5.6535590376E-03    5.5932022416E-03
    5.5334859322E-03    5.4744033875E-03    5.4159479543E-03    5.3581130480E-03
    5.3008921515E-03    5.2442788145E-03    5.1882666532E-03    5.1328493493E-03
    5.0780206494E-03    5.0237743647E-03    4.9701043699E-03    4.9170046028E-03
    4.8644690639E-03    4.8124918151E-03    4.7610669800E-03    4.7101887425E-03
    4.6598513467E-03    4.6100490961E-03    4.5607763528E-03    4.5120275376E-03
    4.4637971286E-03    4.4160796611E-03    4.3688697271E-03    4.3221619744E-03
    4.2759511062E-03    4.2302318807E-03    4.1849991102E-03    4.1402476610E-03
    4.0959724525E-03    4.0521684569E-03    4.0088306984E-03    3.9659542530E-03
    3.9235342477E-03    3.8815658603E-03    3.8400443186E-03    3.7989649001E-03
    3.7583229311E-03    3.7181137869E-03    3.6783328907E-03    3.6389757135E-03
    3.6000377733E-03    3.5615146349E-03    3.5234019092E-03    3.4856952529E-03
    3.4483903681E-03    3.4114830015E-03    3.3749689444E-03    3.3388440318E-03
    3.3031041424E-03    3.2677451979E-03    3.2327631624E-03    3.1981540423E-03
    3.1639138859E-03    3.1300387826E-03    3.0965248627E-03    3.0633682971E-03
    3.0305652968E-03    2.9981121122E-03    2.9660050333E-03    2.9342403888E-03
    2.9028145458E-03    2.8717239095E-03    2.8409649228E-03    2.8105340660E-03
    2.7804278562E-03    2.7506428471E-03    2.7211756284E-03    2.6920228258E-03
    2.6631811003E-03    2.6346471481E-03    2.6064176999E-03    2.5784895210E-03
    2.5508594104E-03    2.5235242010E-03    2.4964807590E-03    2.4697259833E-03
    2.4432568057E-03    2.4170701902E-03    2.3911631326E-03    2.3655326606E-03
    2.3401758331E-03    2.3150897398E-03    2.2902715012E-03    2.2657182682E-03
    2.2414272217E-03    2.2173955723E-03    2.1936205599E-03    2.1700994536E-03
    2.1468295514E-03    2.1238081797E-03    2.1010326932E-03    2.0785004743E-03
    2.0562089333E-03    2.0341555078E-03    2.0123376624E-03    1.9907528884E-03
    1.9693987038E-03    1.9482726527E-03    1.9273723052E-03    1.9066952571E-03
    1.8862391296E-03    1.8660015691E-03    1.8459802468E-03    1.8261728587E-03
    1.8065771250E-03    1.7871907903E-03    1.7680116227E-03    1.7490374143E-03
    1.7302659803E-03    1.7116951593E-03    1.6933228125E-03    1.6751468240E-03
    1.6571651003E-03    1.6393755700E-03    1.6217761836E-03    1.6043649136E-03
    1.5871397537E-03    1.5700987191E-03    1.5532398459E-03    1.5365611912E-03
    1.5200608326E-03    1.5037368680E-03    1.4875874158E-03    1.4716106141E-03
    1.4558046209E-03    1.4401676137E-03    1.4246977894E-03    1.4093933640E-03
    1.3942525726E-03    1.3792736689E-03    1.3644549252E-03    1.3497946322E-03
    1.3352910987E-03    1.3209426516E-03    1.3067476354E-03    1.2927044125E-03
    1.2788113624E-03    1.2650668820E-03    1.2514693853E-03    1.2380173031E-03
    1.2247090829E-03    1.2115431887E-03    1.1985181009E-03    1.1856323161E-03
    1.1728843469E-03    1.1602727217E-03    1.1477959845E-03    1.1354526949E-03
    1.1232414280E-03    1.1111607737E-03    1.0992093372E-03    1.0873857386E-03
    1.0756886125E-03    1.0641166082E-03    1.0526683893E-03    1.0413426338E-03
    1.0301380336E-03    1.0190532947E-03    1.0080871368E-03    9.9723829332E-04
    9.8650551116E-04    9.7588755058E-04    9.6538318507E-04    9.5499120121E-04
    9.4471039853E-04    9.3453958935E-04    9.2447759869E-04    9.1452326408E-04
    9.0467543548E-04    8.9493297512E-04    8.8529475737E-04    8.7575966862E-04
    8.6632660714E-04    8.5699448298E-04    8.4776221781E-04    8.3862874484E-04
    8.2959300864E-04    8.2065396509E-04    8.1181058118E-04    8.0306183496E-04
    7.9440671539E-04    7.8584422225E-04    7.7737336597E-04    7.6899316757E-04
    7.6070265855E-04    7.5250088072E-04    7.4438688616E-04    7.3635973706E-04
    7.2841850565E-04    7.2056227407E-04    7.1279013427E-04    7.0510118789E-04
    6.9749454619E-04    6.8996932994E-04    6.8252466928E-04    6.7515970368E-04
    6.6787358179E-04    6.6066546136E-04    6.5353450917E-04    6.4647990088E-04
    6.3950082098E-04    6.3259646268E-04    6.2576602781E-04    6.1900872675E-04
    6.1232377830E-04    6.0571040964E-04    5.9916785621E-04    5.9269536160E-04
    5.8629217753E-04    5.7995756370E-04    5.7369078773E-04    5.6749112508E-04
    5.6135785896E-04    5.5529028023E-04    5.4928768736E-04    5.4334938630E-04
    5.3747469046E-04    5.3166292055E-04    5.2591340458E-04    5.2022547772E-04
    5.1459848229E-04    5.0903176761E-04    5.0352468998E-04    4.9807661257E-04
    4.9268690539E-04    4.8735494515E-04    4.8208011527E-04    4.7686180574E-04
    4.7169941307E-04    4.6659234025E-04    4.6153999663E-04    4.5654179790E-04
    4.5159716600E-04    4.4670552903E-04    4.4186632123E-04    4.3707898289E-04
    4.3234296027E-04    4.2765770558E-04    4.2302267686E-04    4.1843733797E-04
    4.1390115850E-04    4.0941361369E-04    4.0497418444E-04    4.0058235715E-04
    3.9623762374E-04    3.9193948157E-04    3.8768743337E-04    3.8348098716E-04
    3.7931965627E-04    3.7520295920E-04    3.7113041960E-04    3.6710156623E-04
    3.6311593288E-04    3.5917305833E-04    3.5527248627E-04    3.5141376531E-04
    3.4759644884E-04    3.4382009505E-04    3.4008426685E-04    3.3638853182E-04
    3.3273246217E-04    3.2911563467E-04    3.2553763062E-04    3.2199803579E-04
    3.1849644039E-04    3.1503243899E-04    3.1160563051E-04    3.0821561815E-04
    3.0486200935E-04    3.0154441573E-04    2.9826245309E-04    2.9501574132E-04
    2.9180390435E-04    2.8862657015E-04    2.8548337067E-04    2.8237394178E-04
    2.7929792323E-04    2.7625495863E-04    2.7324469539E-04    2.7026678471E-04
    2.6732088146E-04    2.6440664426E-04    2.6152373532E-04    2.5867182049E-04
    2.5585056917E-04    2.5305965429E-04    2.5029875230E-04    2.4756754305E-04
    2.4486570986E-04    2.4219293939E-04    2.3954892167E-04    2.3693335002E-04
    2.3434592105E-04    2.3178633457E-04    2.2925429365E-04    2.2674950448E-04
    2.2427167639E-04    2.2182052184E-04    2.1939575632E-04    2.1699709838E-04
    2.1462426956E-04    2.1227699436E-04    2.0995500024E-04    2.0765801755E-04
    2.0538577952E-04    2.0313802221E-04    2.0091448452E-04    1.9871490810E-04
    1.9653903739E-04    1.9438661951E-04    1.9225740432E-04    1.9015114430E-04
    1.8806759461E-04    1.8600651299E-04    1.8396765977E-04    1.8195079783E-04
    1.7995569257E-04    1.7798211190E-04    1.7602982620E-04    1.7409860828E-04
    1.7218823338E-04    1.7029847915E-04    1.6842912557E-04    1.6657995498E-04
    1.6475075205E-04    1.6294130372E-04    1.6115139921E-04    1.5938082997E-04
    1.5762938969E-04    1.5589687424E-04    1.5418308166E-04    1.5248781214E-04
    1.5081086800E-04    1.4915205367E-04    1.4751117563E-04    1.4588804245E-04
    1.4428246473E-04    1.4269425506E-04    1.4112322805E-04    1.3956920026E-04
    1.3803199022E-04    1.3651141837E-04    1.3500730707E-04    1.3351948057E-04
    1.3204776498E-04    1.3059198825E-04    1.2915198018E-04    1.2772757236E-04
    1.2631859817E-04    1.2492489278E-04    1.2354629308E-04    1.2218263771E-04
    1.2083376703E-04    1.1949952308E-04    1.1817974959E-04    1.1687429193E-04
    1.1558299714E-04    1.1430571387E-04    1.1304229236E-04    1.1179258447E-04
    1.1055644361E-04    1.0933372476E-04    1.0812428443E-04    1.0692798065E-04
    1.0574467297E-04    1.0457422242E-04    1.0341649151E-04    1.0227134419E-04
    1.0113864589E-04    1.0001826344E-04    9.8910065089E-05    9.7813920481E-05
    9.6729700648E-05    9.5657277988E-05    9.4596526251E-05    9.3547320530E-05
    9.2509537236E-05    9.1483054098E-05    9.0467750135E-05    8.9463505653E-05
    8.8470202227E-05    8.7487722685E-05    8.6515951099E-05    8.5554772771E-05
    8.4604074218E-05    8.3663743160E-05    8.2733668506E-05    8.1813740346E-05
    8.0903849932E-05    8.0003889671E-05    7.9113753108E-05    7.8233334919E-05
    7.7362530894E-05    7.6501237930E-05    7.5649354015E-05    7.4806778218E-05
    7.3973410680E-05    7.3149152597E-05    7.2333906215E-05    7.1527574816E-05
    7.0730062704E-05    6.9941275200E-05    6.9161118629E-05    6.8389500306E-05
    6.7626328530E-05    6.6871512572E-05    6.6124962664E-05    6.5386589990E-05
    6.4656306674E-05    6.3934025773E-05    6.3219661264E-05    6.2513128037E-05
    6.1814341883E-05    6.1123219486E-05    6.0439678413E-05    5.9763637106E-05
    5.9095014869E-05    5.8433731863E-05    5.7779709095E-05    5.7132868409E-05
    5.6493132479E-05    5.5860424796E-05    5.5234669665E-05    5.4615792191E-05
    5.4003718276E-05    5.3398374604E-05    5.2799688640E-05    5.2207588615E-05
    5.1622003524E-05    5.1042863112E-05    5.0470097872E-05    4.9903639032E-05
    4.9343418550E-05    4.8789369106E-05    4.8241424095E-05    4.7699517617E-05
    4.7163584471E-05    4.6633560150E-05    4.6109380829E-05    4.5590983362E-05
    4.5078305271E-05    4.4571284744E-05    4.4069860624E-05    4.3573972400E-05
    4.3083560209E-05    4.2598564819E-05    4.2118927629E-05    4.1644590659E-05
    4.1175496547E-05    4.0711588537E-05    4.0252810478E-05    3.9799106816E-05
    3.9350422584E-05    3.8906703403E-05    3.8467895470E-05    3.8033945552E-05
    3.7604800985E-05    3.7180409662E-05    3.6760720032E-05    3.6345681091E-05
    3.5935242378E-05    3.5529353968E-05    3.5127966467E-05    3.4731031006E-05
    3.4338499237E-05    3.3950323326E-05    3.3566455947E-05    3.3186850280E-05
    3.2811460001E-05    3.2440239279E-05    3.2073142774E-05    3.1710125626E-05
    3.1351143453E-05    3.0996152346E-05    3.0645108865E-05    3.0297970032E-05
    2.9954693325E-05    2.9615236680E-05    2.9279558476E-05    2.8947617539E-05
    2.8619373134E-05    2.8294784959E-05    2.7973813143E-05    2.7656418239E-05
    2.7342561223E-05    2.7032203486E-05    2.6725306831E-05    2.6421833470E-05
    2.6121746018E-05    2.5825007487E-05    2.5531581289E-05    2.5241431221E-05
    2.4954521473E-05    2.4670816612E-05    2.4390281587E-05    2.4112881723E-05
    2.3838582711E-05    2.3567350614E-05    2.3299151856E-05    2.3033953219E-05
    2.2771721842E-05    2.2512425217E-05    2.2256031180E-05    2.2002507917E-05
    2.1751823949E-05    2.1503948140E-05    2.1258849682E-05    2.1016498101E-05
    2.0776863249E-05    2.0539915300E-05    2.0305624749E-05    2.0073962408E-05
    1.9844899401E-05    1.9618407162E-05    1.9394457432E-05    1.9173022256E-05
    1.8954073979E-05    1.8737585241E-05    1.8523528980E-05    1.8311878420E-05
    1.8102607078E-05    1.7895688751E-05    1.7691097521E-05    1.7488807748E-05
    1.7288794066E-05    1.7091031385E-05    1.6895494884E-05    1.6702160008E-05
    1.6511002468E-05    1.6321998236E-05    1.6135123544E-05    1.5950354877E-05
    1.5767668977E-05    1.5587042836E-05    1.5408453694E-05    1.5231879034E-05
    1.5057296587E-05    1.4884684321E-05    1.4714020442E-05    1.4545283392E-05
    1.4378451846E-05    1.4213504710E-05    1.4050421117E-05    1.3889180426E-05
    1.3729762219E-05    1.3572146299E-05    1.3416312687E-05    1.3262241623E-05
    1.3109913557E-05    1.2959309153E-05    1.2810409284E-05    1.2663195031E-05
    1.2517647678E-05    1.2373748714E-05    1.2231479827E-05    1.2090822906E-05
    1.1951760034E-05    1.1814273490E-05    1.1678345745E-05    1.1543959460E-05
    1.1411097485E-05    1.1279742855E-05    1.1149878792E-05    1.1021488698E-05
    1.0894556156E-05    1.0769064928E-05    1.0644998953E-05    1.0522342343E-05
    1.0401079386E-05    1.0281194539E-05    1.0162672429E-05    1.0045497849E-05
    9.9296557604E-06    9.8151312866E-06    9.7019097141E-06    9.5899764895E-06
    9.4793172185E-06    9.3699176638E-06    9.2617637436E-06    9.1548415298E-06
    9.0491372465E-06    8.9446372686E-06    8.8413281195E-06    8.7391964704E-06
    8.6382291381E-06    8.5384130835E-06    8.4397354104E-06    8.3421833638E-06
    8.2457443283E-06    8.1504058268E-06    8.0561555186E-06    7.9629811987E-06
    7.8708707957E-06    7.7798123706E-06    7.6897941153E-06    7.6008043515E-06
    7.5128315289E-06    7.4258642240E-06    7.3398911391E-06    7.2549011002E-06
    7.1708830563E-06    7.0878260780E-06    7.0057193560E-06    6.9245521997E-06
    6.8443140365E-06    6.7649944099E-06    6.6865829786E-06    6.6090695153E-06
    6.5324439051E-06    6.4566961449E-06    6.3818163417E-06    6.3077947115E-06
    6.2346215783E-06    6.1622873729E-06    6.0907826316E-06    6.0200979954E-06
    5.9502242084E-06    5.8811521170E-06    5.8128726688E-06    5.7453769115E-06
    5.6786559916E-06    5.6127011537E-06    5.5475037392E-06    5.4830551852E-06
    5.4193470237E-06    5.3563708806E-06    5.2941184742E-06    5.2325816148E-06
    5.1717522035E-06    5.1116222309E-06    5.0521837768E-06    4.9934290085E-06
    4.9353501805E-06    4.8779396330E-06    4.8211897914E-06    4.7650931652E-06
    4.7096423471E-06    4.6548300121E-06    4.6006489165E-06    4.5470918974E-06
    4.4941518714E-06    4.4418218338E-06    4.3900948580E-06    4.3389640945E-06
    4.2884227701E-06    4.2384641867E-06    4.1890817214E-06    4.1402688245E-06
    4.0920190198E-06    4.0443259031E-06    3.9971831415E-06    3.9505844731E-06
    3.9045237055E-06    3.8589947156E-06    3.8139914489E-06    3.7695079181E-06
    3.7255382030E-06    3.6820764497E-06    3.6391168696E-06    3.5966537387E-06
    3.5546813972E-06    3.5131942486E-06    3.4721867591E-06    3.4316534567E-06
    3.3915889307E-06    3.3519878311E-06    3.3128448678E-06    3.2741548100E-06
    3.2359124854E-06    3.1981127800E-06    3.1607506368E-06    3.1238210559E-06
    3.0873190932E-06    3.0512398602E-06    3.0155785234E-06    2.9803303036E-06
    2.9454904750E-06    2.9110543653E-06    2.8770173544E-06    2.8433748744E-06
    2.8101224086E-06    2.7772554913E-06    2.7447697067E-06    2.7126606891E-06
    2.6809241217E-06    2.6495557366E-06    2.6185513135E-06    2.5879066801E-06
    2.5576177110E-06    2.5276803272E-06    2.4980904958E-06    2.4688442294E-06
    2.4399375855E-06    2.4113666662E-06    2.3831276175E-06    2.3552166289E-06
    2.3276299332E-06    2.3003638055E-06    2.2734145630E-06    2.2467785646E-06
    2.2204522104E-06    2.1944319411E-06    2.1687142378E-06    2.1432956213E-06
    2.1181726518E-06    2.0933419286E-06    2.0688000891E-06    2.0445438093E-06
    2.0205698026E-06    1.9968748194E-06    1.9734556475E-06    1.9503091105E-06
    1.9274320686E-06    1.9048214171E-06    1.8824740869E-06    1.8603870436E-06
    1.8385572872E-06    1.8169818517E-06    1.7956578049E-06    1.7745822480E-06
    1.7537523150E-06    1.7331651723E-06    1.7128180189E-06    1.6927080854E-06
    1.6728326340E-06    1.6531889578E-06    1.6337743810E-06    1.6145862581E-06
    1.5956219738E-06    1.5768789425E-06    1.5583546081E-06    1.5400464436E-06
    1.5219519507E-06    1.5040686597E-06    1.4863941289E-06    1.4689259448E-06
    1.4516617209E-06    1.4345990983E-06    1.4177357449E-06    1.4010693553E-06
    1.3845976501E-06    1.3683183764E-06    1.3522293066E-06    1.3363282388E-06
    1.3206129961E-06    1.3050814266E-06    1.2897314030E-06    1.2745608221E-06
    1.2595676051E-06    1.2447496967E-06    1.2301050651E-06    1.2156317019E-06
    1.2013276217E-06    1.1871908617E-06    1.1732194816E-06    1.1594115634E-06
    1.1457652108E-06    1.1322785497E-06    1.1189497270E-06    1.1057769111E-06
    1.0927582914E-06    1.0798920779E-06    1.0671765013E-06    1.0546098124E-06
    1.0421902822E-06    1.0299162016E-06    1.0177858810E-06    1.0057976502E-06
    9.9394985815E-07    9.8224087291E-07    9.7066908113E-07    9.5923288806E-07
    9.4793071726E-07    9.3676101041E-07    9.2572222710E-07    9.1481284462E-07
    9.0403135780E-07    8.9337627873E-07    8.8284613667E-07    8.7243947777E-07
    8.6215486492E-07    8.5199087755E-07    8.4194611143E-07    8.3201917852E-07
    8.2220870675E-07    8.1251333987E-07    8.0293173723E-07    7.9346257364E-07
    7.8410453919E-07    7.7485633906E-07    7.6571669336E-07    7.5668433695E-07
    7.4775801929E-07    7.3893650427E-07    7.3021857002E-07    7.2160300879E-07
    7.1308862676E-07    7.0467424388E-07    6.9635869375E-07    6.8814082341E-07
    6.8001949323E-07    6.7199357674E-07    6.6406196049E-07    6.5622354388E-07
    6.4847723905E-07    6.4082197070E-07    6.3325667596E-07    6.2578030426E-07
    6.1839181716E-07    6.1109018826E-07    6.0387440301E-07    5.9674345861E-07
    5.8969636384E-07    5.8273213900E-07    5.7584981568E-07    5.6904843672E-07
    5.6232705602E-07    5.5568473844E-07    5.4912055968E-07    5.4263360614E-07
    5.3622297481E-07    5.2988777315E-07    5.2362711895E-07    5.1744014024E-07
    5.1132597515E-07    5.0528377180E-07    4.9931268821E-07    4.9341189214E-07
    4.8758056103E-07    4.8181788184E-07    4.7612305098E-07    4.7049527418E-07
    4.6493376639E-07    4.5943775169E-07    4.5400646313E-07    4.4863914270E-07
    4.4333504119E-07    4.3809341809E-07    4.3291354147E-07    4.2779468795E-07
    4.2273614250E-07    4.1773719846E-07    4.1279715734E-07    4.0791532879E-07
    4.0309103048E-07    3.9832358802E-07    3.9361233485E-07    3.8895661219E-07
    3.8435576890E-07    3.7980916143E-07    3.7531615370E-07    3.7087611706E-07
    3.6648843016E-07    3.6215247889E-07    3.5786765627E-07    3.5363336243E-07
    3.4944900444E-07    3.4531399632E-07    3.4122775887E-07    3.3718971967E-07
    3.3319931296E-07    3.2925597958E-07    3.2535916687E-07    3.2150832864E-07
    3.1770292504E-07    3.1394242252E-07    3.1022629376E-07    3.0655401759E-07
    3.0292507892E-07    2.9933896865E-07    2.9579518364E-07    2.9229322661E-07
    2.8883260609E-07    2.8541283634E-07    2.8203343728E-07    2.7869393447E-07
    2.7539385896E-07    2.7213274732E-07    2.6891014150E-07    2.6572558881E-07
    2.6257864185E-07    2.5946885845E-07    2.5639580159E-07    2.5335903938E-07
    2.5035814495E-07    2.4739269645E-07    2.4446227692E-07    2.4156647432E-07
    2.3870488138E-07    2.3587709563E-07    2.3308271930E-07    2.3032135924E-07
    2.2759262694E-07    2.2489613841E-07    2.2223151415E-07    2.1959837912E-07
    2.1699636265E-07    2.1442509841E-07    2.1188422437E-07    2.0937338272E-07
    2.0689221984E-07    2.0444038628E-07    2.0201753663E-07    1.9962332956E-07
    1.9725742774E-07    1.9491949776E-07    1.9260921015E-07    1.9032623928E-07
    1.8807026333E-07    1.8584096427E-07    1.8363802777E-07    1.8146114322E-07
    1.7931000361E-07    1.7718430556E-07    1.7508374922E-07    1.7300803828E-07
    1.7095687988E-07    1.6892998462E-07    1.6692706647E-07    1.6494784277E-07
    1.6299203416E-07    1.6105936457E-07    1.5914956117E-07    1.5726235431E-07
    1.5539747753E-07    1.5355466749E-07    1.5173366392E-07    1.4993420962E-07
    1.4815605042E-07    1.4639893512E-07    1.4466261546E-07    1.4294684611E-07
    1.4125138461E-07    1.3957599137E-07    1.3792042957E-07    1.3628446522E-07
    1.3466786703E-07    1.3307040648E-07    1.3149185768E-07    1.2993199743E-07
    1.2839060515E-07    1.2686746283E-07    1.2536235504E-07    1.2387506888E-07
    1.2240539394E-07    1.2095312230E-07    1.1951804848E-07    1.1809996940E-07
    1.1669868438E-07    1.1531399511E-07    1.1394570558E-07    1.1259362213E-07
    1.1125755333E-07    1.0993731003E-07    1.0863270531E-07    1.0734355442E-07
    1.0606967481E-07    1.0481088607E-07    1.0356700990E-07    1.0233787012E-07
    1.0112329260E-07    9.9923105273E-08    9.8737138100E-08    9.7565223036E-08
    9.6407194014E-08    9.5262886923E-08    9.4132139586E-08    9.3014791733E-08
    9.1910684981E-08    9.0819662812E-08    8.9741570553E-08    8.8676255350E-08
    8.7623566151E-08    8.6583353680E-08    8.5555470423E-08    8.4539770602E-08
    8.3536110156E-08    8.2544346721E-08    8.1564339612E-08    8.0595949798E-08
    7.9639039890E-08    7.8693474117E-08    7.7759118307E-08    7.6835839869E-08
    7.5923507777E-08    7.5021992547E-08    7.4131166222E-08    7.3250902355E-08
    7.2381075987E-08    7.1521563634E-08    7.0672243269E-08    6.9832994301E-08
    6.9003697563E-08    6.8184235292E-08    6.7374491117E-08    6.6574350034E-08
    6.5783698401E-08    6.5002423914E-08    6.4230415593E-08    6.3467563768E-08
    6.2713760064E-08    6.1968897383E-08    6.1232869891E-08    6.0505573003E-08
    5.9786903370E-08    5.9076758859E-08    5.8375038544E-08    5.7681642692E-08
    5.6996472745E-08    5.6319431309E-08    5.5650422139E-08    5.4989350126E-08
    5.4336121287E-08    5.3690642744E-08    5.3052822719E-08    5.2422570515E-08
    5.1799796509E-08    5.1184412134E-08    5.0576329870E-08    4.9975463230E-08
    4.9381726748E-08    4.8795035970E-08    4.8215307436E-08    4.7642458675E-08
    4.7076408187E-08    4.6517075439E-08    4.5964380845E-08    4.5418245763E-08
    4.4878592478E-08    4.4345344193E-08    4.3818425020E-08    4.3297759968E-08
    4.2783274929E-08    4.2274896676E-08    4.1772552842E-08    4.1276171920E-08
    4.0785683245E-08    4.0301016988E-08    3.9822104147E-08    3.9348876534E-08
    3.8881266768E-08    3.8419208264E-08    3.7962635224E-08    3.7511482630E-08
    3.7065686230E-08    3.6625182534E-08    3.6189908801E-08    3.5759803034E-08
    3.5334803967E-08    3.4914851060E-08    3.4499884489E-08    3.4089845137E-08
    3.3684674586E-08    3.3284315110E-08    3.2888709665E-08    3.2497801882E-08
    3.2111536060E-08    3.1729857156E-08    3.1352710777E-08    3.0980043176E-08
    3.0611801240E-08    3.0247932486E-08    2.9888385051E-08    2.9533107686E-08
    2.9182049748E-08    2.8835161195E-08    2.8492392575E-08    2.8153695023E-08
    2.7819020251E-08    2.7488320545E-08    2.7161548752E-08    2.6838658281E-08
    2.6519603089E-08    2.6204337682E-08    2.5892817101E-08    2.5584996921E-08
    2.5280833243E-08    2.4980282687E-08    2.4683302388E-08    2.4389849987E-08
    2.4099883627E-08    2.3813361947E-08    2.3530244076E-08    2.3250489627E-08
    2.2974058691E-08    2.2700911830E-08    2.2431010077E-08    2.2164314924E-08
    2.1900788318E-08    2.1640392659E-08    2.1383090791E-08    2.1128846000E-08
    2.0877622004E-08    2.0629382954E-08    2.0384093423E-08    2.0141718405E-08
    1.9902223308E-08    1.9665573952E-08    1.9431736559E-08    1.9200677753E-08
    1.8972364554E-08    1.8746764370E-08    1.8523844999E-08    1.8303574618E-08
    1.8085921781E-08    1.7870855417E-08    1.7658344820E-08    1.7448359652E-08
    1.7240869930E-08    1.7035846030E-08    1.6833258677E-08    1.6633078944E-08
    1.6435278247E-08    1.6239828340E-08    1.6046701312E-08    1.5855869584E-08
    1.5667305903E-08    1.5480983338E-08    1.5296875280E-08    1.5114955434E-08
    1.4935197815E-08    1.4757576749E-08    1.4582066866E-08    1.4408643094E-08
    1.4237280662E-08    1.4067955091E-08    1.3900642191E-08    1.3735318062E-08
    1.3571959085E-08    1.3410541921E-08    1.3251043508E-08    1.3093441060E-08
    1.2937712059E-08    1.2783834253E-08    1.2631785655E-08    1.2481544541E-08
    1.2333089442E-08    1.2186399143E-08    1.2041452684E-08    1.1898229350E-08
    1.1756708675E-08    1.1616870433E-08    1.1478694639E-08    1.1342161546E-08
    1.1207251640E-08    1.1073945639E-08    1.0942224490E-08    1.0812069366E-08
    1.0683461662E-08    1.0556382997E-08    1.0430815204E-08    1.0306740334E-08
    1.0184140652E-08    1.0062998630E-08    9.9432969513E-09    9.8250185031E-09
    9.7081463758E-09    9.5926638608E-09    9.4785544476E-09    9.3658018216E-09
    9.2543898619E-09    9.1443026389E-09    9.0355244121E-09    8.9280396277E-09
    8.8218329167E-09    8.7168890924E-09    8.6131931483E-09    8.5107302561E-09
    8.4094857636E-09    8.3094451922E-09    8.2105942356E-09    8.1129187571E-09
    8.0164047877E-09    7.9210385244E-09    7.8268063280E-09    7.7336947214E-09
    7.6416903871E-09    7.5507801660E-09    7.4609510552E-09    7.3721902061E-09
    7.2844849228E-09    7.1978226599E-09    7.1121910211E-09    7.0275777572E-09
    6.9439707647E-09    6.8613580834E-09    6.7797278955E-09    6.6990685233E-09
    6.6193684278E-09    6.5406162070E-09    6.4628005945E-09    6.3859104575E-09
    6.3099347953E-09    6.2348627381E-09    6.1606835450E-09    6.0873866028E-09
    6.0149614243E-09    5.9433976467E-09    5.8726850304E-09    5.8028134574E-09
    5.7337729300E-09    5.6655535690E-09    5.5981456127E-09    5.5315394153E-09
    5.4657254455E-09    5.4006942854E-09    5.3364366288E-09    5.2729432800E-09
    5.2102051527E-09    5.1482132685E-09    5.0869587555E-09    5.0264328473E-09
    4.9666268818E-09    4.9075322994E-09    4.8491406426E-09    4.7914435540E-09
    4.7344327759E-09    4.6781001483E-09    4.6224376083E-09    4.5674371890E-09
    4.5130910178E-09    4.4593913159E-09    4.4063303967E-09    4.3539006650E-09
    4.3020946161E-09    4.2509048340E-09    4.2003239913E-09    4.1503448472E-09
    4.1009602472E-09    4.0521631219E-09    4.0039464857E-09    3.9563034360E-09
   </PP_CHI.2>
   <PP_CHI.3
       type="real"
       size="1940"
       columns="4"
       index="3"
       occupation=" 2.000"
       pseudo_energy="   -0.2400497314E+00"
       label="6S"
       l="0" >
   -5.5427776084E-14   -2.3363779759E-05   -4.9389599370E-05   -8.0735200481E-05
   -1.2004973516E-04   -1.6996948822E-04   -2.3311361993E-04   -3.1207993602E-04
   -4.0944069159E-04   -5.2773843552E-04   -6.6948190199E-04   -8.3714195561E-04
   -1.0331475964E-03   -1.2598820307E-03   -1.5196788150E-03   -1.8148180768E-03
   -2.1475228204E-03   -2.5199553221E-03   -2.9342136198E-03   -3.3923281043E-03
   -3.8962582142E-03   -4.4478892431E-03   -5.0490292601E-03   -5.7014061509E-03
   -6.4066647821E-03   -7.1663642935E-03   -7.9819755217E-03   -8.8548785591E-03
   -9.7863604514E-03   -1.0777613036E-02   -1.1829730926E-02   -1.2943709640E-02
   -1.4120443882E-02   -1.5360725973E-02   -1.6665244433E-02   -1.8034582725E-02
   -1.9469218148E-02   -2.0969520890E-02   -2.2535753242E-02   -2.4168068966E-02
   -2.5866512830E-02   -2.7631020293E-02   -2.9461417358E-02   -3.1357420578E-02
   -3.3318637230E-02   -3.5344565632E-02   -3.7434595634E-02   -3.9588009254E-02
   -4.1803981468E-02   -4.4081581164E-02   -4.6419772232E-02   -4.8817414816E-02
   -5.1273266705E-02   -5.3785984870E-02   -5.6354127147E-02   -5.8976154052E-02
   -6.1650430737E-02   -6.4375229080E-02   -6.7148729896E-02   -6.9969025287E-02
   -7.2834121099E-02   -7.5741939512E-02   -7.8690321734E-02   -8.1677030809E-02
   -8.4699754529E-02   -8.7756108451E-02   -9.0843639005E-02   -9.3959826699E-02
   -9.7102089405E-02   -1.0026778573E-01   -1.0345421848E-01   -1.0665863814E-01
   -1.0987824651E-01   -1.1311020030E-01   -1.1635161487E-01   -1.1959956795E-01
   -1.2285110347E-01   -1.2610323534E-01   -1.2935295136E-01   -1.3259721706E-01
   -1.3583297966E-01   -1.3905717195E-01   -1.4226671624E-01   -1.4545852830E-01
   -1.4862952123E-01   -1.5177660947E-01   -1.5489671262E-01   -1.5798675935E-01
   -1.6104369126E-01   -1.6406446667E-01   -1.6704606442E-01   -1.6998548758E-01
   -1.7287976715E-01   -1.7572596566E-01   -1.7852118076E-01   -1.8126254869E-01
   -1.8394724770E-01   -1.8657250141E-01   -1.8913558207E-01   -1.9163381370E-01
   -1.9406457524E-01   -1.9642530346E-01   -1.9871349591E-01   -2.0092671367E-01
   -2.0306258405E-01   -2.0511880312E-01   -2.0709313819E-01   -2.0898343015E-01
   -2.1078759568E-01   -2.1250362930E-01   -2.1412960543E-01   -2.1566368014E-01
   -2.1710409292E-01   -2.1844916823E-01   -2.1969731701E-01   -2.2084703794E-01
   -2.2189691864E-01   -2.2284563678E-01   -2.2369196094E-01   -2.2443475145E-01
   -2.2507296100E-01   -2.2560563523E-01   -2.2603191306E-01   -2.2635102701E-01
   -2.2656230331E-01   -2.2666516190E-01   -2.2665911637E-01   -2.2654377363E-01
   -2.2631883364E-01   -2.2598408888E-01   -2.2553942376E-01   -2.2498481379E-01
   -2.2432032457E-01   -2.2354611087E-01   -2.2266241576E-01   -2.2166956945E-01
   -2.2056798810E-01   -2.1935817248E-01   -2.1804070656E-01   -2.1661625595E-01
   -2.1508556634E-01   -2.1344946177E-01   -2.1170884295E-01   -2.0986468535E-01
   -2.0791803739E-01   -2.0587001845E-01   -2.0372181689E-01   -2.0147468794E-01
   -1.9912995164E-01   -1.9668899063E-01   -1.9415324796E-01   -1.9152422485E-01
   -1.8880347838E-01   -1.8599261919E-01   -1.8309330917E-01   -1.8010725905E-01
   -1.7703622604E-01   -1.7388201145E-01   -1.7064645829E-01   -1.6733144883E-01
   -1.6393890224E-01   -1.6047077215E-01   -1.5692904427E-01   -1.5331573399E-01
   -1.4963288402E-01   -1.4588256204E-01   -1.4206685831E-01   -1.3818788346E-01
   -1.3424776610E-01   -1.3024865065E-01   -1.2619269507E-01   -1.2208206872E-01
   -1.1791895019E-01   -1.1370552521E-01   -1.0944398462E-01   -1.0513652232E-01
   -1.0078533339E-01   -9.6392612117E-02   -9.1960550199E-02   -8.7491334946E-02
   -8.2987147555E-02   -7.8450161447E-02   -7.3882540669E-02   -6.9286438355E-02
   -6.4663995259E-02   -6.0017338356E-02   -5.5348579508E-02   -5.0659814208E-02
   -4.5953120387E-02   -4.1230557301E-02   -3.6494164486E-02   -3.1745960792E-02
   -2.6987943486E-02   -2.2222087436E-02   -1.7450344403E-02   -1.2674642113E-02
   -7.8968726154E-03   -3.1186310262E-03    1.6588502589E-03    6.4343396762E-03
    1.1206649224E-02    1.5974621621E-02    2.0737130918E-02    2.5493082213E-02
    3.0241411316E-02    3.4981084404E-02    3.9711097686E-02    4.4430477070E-02
    4.9138277838E-02    5.3833584319E-02    5.8515509575E-02    6.3183195092E-02
    6.7835810474E-02    7.2472553146E-02    7.7092648071E-02    8.1695347463E-02
    8.6279930518E-02    9.0845703151E-02    9.5391997735E-02    9.9918172858E-02
    1.0442361308E-01    1.0890772871E-01    1.1336995556E-01    1.1780975476E-01
    1.2222661252E-01    1.2662003993E-01    1.3098957280E-01    1.3533477139E-01
    1.3965522029E-01    1.4395052822E-01    1.4822032780E-01    1.5246427542E-01
    1.5668205103E-01    1.6087335794E-01    1.6503792262E-01    1.6917549455E-01
    1.7328584595E-01    1.7736877158E-01    1.8142408852E-01    1.8545163590E-01
    1.8945127463E-01    1.9342288712E-01    1.9736637694E-01    2.0128166850E-01
    2.0516870664E-01    2.0902745625E-01    2.1285790175E-01    2.1666004664E-01
    2.2043391295E-01    2.2417954058E-01    2.2789698668E-01    2.3158632490E-01
    2.3524764463E-01    2.3888105007E-01    2.4248665936E-01    2.4606460350E-01
    2.4961502530E-01    2.5313807820E-01    2.5663392496E-01    2.6010273639E-01
    2.6354468989E-01    2.6695996799E-01    2.7034875679E-01    2.7371124434E-01
    2.7704761906E-01    2.8035806804E-01    2.8364277537E-01    2.8690192055E-01
    2.9013567685E-01    2.9334420986E-01    2.9652767606E-01    2.9968622162E-01
    3.0281998130E-01    3.0592907767E-01    3.0901362046E-01    3.1207370632E-01
    3.1510941877E-01    3.1812082853E-01    3.2110799415E-01    3.2407096297E-01
    3.2700977237E-01    3.2992445127E-01    3.3281502194E-01    3.3568150187E-01
    3.3852390589E-01    3.4134224828E-01    3.4413654484E-01    3.4690681496E-01
    3.4965308345E-01    3.5237538217E-01    3.5507375134E-01    3.5774824052E-01
    3.6039890916E-01    3.6302582666E-01    3.6562907203E-01    3.6820873296E-01
    3.7076490439E-01    3.7329768665E-01    3.7580718298E-01    3.7829349681E-01
    3.8075672844E-01    3.8319697167E-01    3.8561431010E-01    3.8800881352E-01
    3.9038053439E-01    3.9272950477E-01    3.9505573368E-01    3.9735920539E-01
    3.9963987851E-01    4.0189768625E-01    4.0413254063E-01    4.0634434771E-01
    4.0853302534E-01    4.1069850582E-01    4.1284073258E-01    4.1495966029E-01
    4.1705525404E-01    4.1912748861E-01    4.2117634782E-01    4.2320182389E-01
    4.2520391686E-01    4.2718263400E-01    4.2913798936E-01    4.3107000318E-01
    4.3297870150E-01    4.3486411571E-01    4.3672628212E-01    4.3856524160E-01
    4.4038103918E-01    4.4217372374E-01    4.4394334769E-01    4.4568996662E-01
    4.4741363904E-01    4.4911442614E-01    4.5079239144E-01    4.5244760063E-01
    4.5408012129E-01    4.5569002269E-01    4.5727737555E-01    4.5884225186E-01
    4.6038472468E-01    4.6190486795E-01    4.6340275631E-01    4.6487846492E-01
    4.6633206934E-01    4.6776364528E-01    4.6917326852E-01    4.7056101473E-01
    4.7192695931E-01    4.7327117723E-01    4.7459374291E-01    4.7589473006E-01
    4.7717421150E-01    4.7843225905E-01    4.7966894335E-01    4.8088433370E-01
    4.8207849790E-01    4.8325150207E-01    4.8440341050E-01    4.8553428541E-01
    4.8664418677E-01    4.8773317209E-01    4.8880129618E-01    4.8984861089E-01
    4.9087516486E-01    4.9188100319E-01    4.9286616710E-01    4.9383069366E-01
    4.9477461522E-01    4.9569795823E-01    4.9660074105E-01    4.9748297244E-01
    4.9834465226E-01    4.9918577312E-01    5.0000632221E-01    5.0080628369E-01
    5.0158564170E-01    5.0234438391E-01    5.0308250538E-01    5.0380001280E-01
    5.0449692872E-01    5.0517329572E-01    5.0582918007E-01    5.0646467475E-01
    5.0707990150E-01    5.0767501171E-01    5.0825018613E-01    5.0880563336E-01
    5.0934158720E-01    5.0985830327E-01    5.1035605490E-01    5.1083512885E-01
    5.1129582091E-01    5.1173843181E-01    5.1216326344E-01    5.1257061557E-01
    5.1296078316E-01    5.1333405412E-01    5.1369070767E-01    5.1403101316E-01
    5.1435522921E-01    5.1466360330E-01    5.1495637156E-01    5.1523375883E-01
    5.1549597886E-01    5.1574323463E-01    5.1597571883E-01    5.1619361430E-01
    5.1639709460E-01    5.1658632455E-01    5.1676146077E-01    5.1692265227E-01
    5.1707004100E-01    5.1720376234E-01    5.1732394563E-01    5.1743071466E-01
    5.1752418814E-01    5.1760448011E-01    5.1767170034E-01    5.1772595477E-01
    5.1776734580E-01    5.1779597269E-01    5.1781193180E-01    5.1781531697E-01
    5.1780621971E-01    5.1778472948E-01    5.1775093394E-01    5.1770491916E-01
    5.1764676978E-01    5.1757656924E-01    5.1749439992E-01    5.1740034330E-01
    5.1729448012E-01    5.1717689049E-01    5.1704765399E-01    5.1690684984E-01
    5.1675455691E-01    5.1659085391E-01    5.1641581936E-01    5.1622953175E-01
    5.1603206958E-01    5.1582351136E-01    5.1560393574E-01    5.1537342150E-01
    5.1513204763E-01    5.1487989328E-01    5.1461703789E-01    5.1434356114E-01
    5.1405954298E-01    5.1376506365E-01    5.1346020369E-01    5.1314504394E-01
    5.1281966552E-01    5.1248414987E-01    5.1213857871E-01    5.1178303405E-01
    5.1141759816E-01    5.1104235359E-01    5.1065738312E-01    5.1026276978E-01
    5.0985859678E-01    5.0944494757E-01    5.0902190574E-01    5.0858955504E-01
    5.0814797938E-01    5.0769726274E-01    5.0723748923E-01    5.0676874300E-01
    5.0629110825E-01    5.0580466920E-01    5.0530951008E-01    5.0480571508E-01
    5.0429336834E-01    5.0377255396E-01    5.0324335592E-01    5.0270585809E-01
    5.0216014422E-01    5.0160629790E-01    5.0104440255E-01    5.0047454139E-01
    4.9989679745E-01    4.9931125350E-01    4.9871799210E-01    4.9811709552E-01
    4.9750864578E-01    4.9689272458E-01    4.9626941335E-01    4.9563879318E-01
    4.9500094483E-01    4.9435594871E-01    4.9370388490E-01    4.9304483311E-01
    4.9237887265E-01    4.9170608249E-01    4.9102654117E-01    4.9034032685E-01
    4.8964751729E-01    4.8894818983E-01    4.8824242137E-01    4.8753028843E-01
    4.8681186707E-01    4.8608723292E-01    4.8535646117E-01    4.8461962659E-01
    4.8387680347E-01    4.8312806568E-01    4.8237348662E-01    4.8161313927E-01
    4.8084709612E-01    4.8007542922E-01    4.7929821016E-01    4.7851551008E-01
    4.7772739965E-01    4.7693394909E-01    4.7613522817E-01    4.7533130617E-01
    4.7452225194E-01    4.7370813387E-01    4.7288901988E-01    4.7206497744E-01
    4.7123607355E-01    4.7040237479E-01    4.6956394725E-01    4.6872085659E-01
    4.6787316800E-01    4.6702094624E-01    4.6616425560E-01    4.6530315995E-01
    4.6443772269E-01    4.6356800680E-01    4.6269407479E-01    4.6181598876E-01
    4.6093381034E-01    4.6004760077E-01    4.5915742080E-01    4.5826333080E-01
    4.5736539067E-01    4.5646365991E-01    4.5555819758E-01    4.5464906232E-01
    4.5373631234E-01    4.5282000546E-01    4.5190019903E-01    4.5097695004E-01
    4.5005031504E-01    4.4912035016E-01    4.4818711114E-01    4.4725065330E-01
    4.4631103157E-01    4.4536830047E-01    4.4442251410E-01    4.4347372619E-01
    4.4252199007E-01    4.4156735866E-01    4.4060988451E-01    4.3964961974E-01
    4.3868661614E-01    4.3772092506E-01    4.3675259749E-01    4.3578168405E-01
    4.3480823497E-01    4.3383230008E-01    4.3285392887E-01    4.3187317043E-01
    4.3089007349E-01    4.2990468641E-01    4.2891705718E-01    4.2792723343E-01
    4.2693526241E-01    4.2594119103E-01    4.2494506582E-01    4.2394693296E-01
    4.2294683827E-01    4.2194482723E-01    4.2094094495E-01    4.1993523619E-01
    4.1892774538E-01    4.1791851658E-01    4.1690759352E-01    4.1589501958E-01
    4.1488083779E-01    4.1386509087E-01    4.1284782117E-01    4.1182907071E-01
    4.1080888120E-01    4.0978729398E-01    4.0876435009E-01    4.0774009022E-01
    4.0671455476E-01    4.0568778373E-01    4.0465981687E-01    4.0363069358E-01
    4.0260045293E-01    4.0156913369E-01    4.0053677431E-01    3.9950341290E-01
    3.9846908728E-01    3.9743383496E-01    3.9639769314E-01    3.9536069868E-01
    3.9432288818E-01    3.9328429789E-01    3.9224496380E-01    3.9120492156E-01
    3.9016420654E-01    3.8912285381E-01    3.8808089813E-01    3.8703837398E-01
    3.8599531554E-01    3.8495175669E-01    3.8390773103E-01    3.8286327186E-01
    3.8181841221E-01    3.8077318480E-01    3.7972762209E-01    3.7868175624E-01
    3.7763561913E-01    3.7658924237E-01    3.7554265727E-01    3.7449589490E-01
    3.7344898601E-01    3.7240196111E-01    3.7135485042E-01    3.7030768391E-01
    3.6926049125E-01    3.6821330186E-01    3.6716614490E-01    3.6611904925E-01
    3.6507204354E-01    3.6402515612E-01    3.6297841510E-01    3.6193184832E-01
    3.6088548336E-01    3.5983934755E-01    3.5879346797E-01    3.5774787144E-01
    3.5670258452E-01    3.5565763353E-01    3.5461304454E-01    3.5356884335E-01
    3.5252505554E-01    3.5148170646E-01    3.5043882121E-01    3.4939642462E-01
    3.4835454129E-01    3.4731319561E-01    3.4627241169E-01    3.4523221342E-01
    3.4419262447E-01    3.4315366826E-01    3.4211536798E-01    3.4107774659E-01
    3.4004082682E-01    3.3900463118E-01    3.3796918194E-01    3.3693450116E-01
    3.3590061065E-01    3.3486753203E-01    3.3383528668E-01    3.3280389576E-01
    3.3177338021E-01    3.3074376075E-01    3.2971505791E-01    3.2868729197E-01
    3.2766048302E-01    3.2663465093E-01    3.2560981534E-01    3.2458599572E-01
    3.2356321130E-01    3.2254148111E-01    3.2152082398E-01    3.2050125854E-01
    3.1948280320E-01    3.1846547618E-01    3.1744929549E-01    3.1643427894E-01
    3.1542044417E-01    3.1440780858E-01    3.1339638941E-01    3.1238620368E-01
    3.1137726822E-01    3.1036959968E-01    3.0936321452E-01    3.0835812900E-01
    3.0735435918E-01    3.0635192096E-01    3.0535083005E-01    3.0435110194E-01
    3.0335275197E-01    3.0235579530E-01    3.0136024689E-01    3.0036612153E-01
    2.9937343382E-01    2.9838219819E-01    2.9739242889E-01    2.9640414001E-01
    2.9541734543E-01    2.9443205891E-01    2.9344829397E-01    2.9246606402E-01
    2.9148538227E-01    2.9050626176E-01    2.8952871537E-01    2.8855275581E-01
    2.8757839563E-01    2.8660564720E-01    2.8563452275E-01    2.8466503434E-01
    2.8369719384E-01    2.8273101301E-01    2.8176650341E-01    2.8080367646E-01
    2.7984254342E-01    2.7888311540E-01    2.7792540334E-01    2.7696941803E-01
    2.7601517013E-01    2.7506267013E-01    2.7411192836E-01    2.7316295501E-01
    2.7221576013E-01    2.7127035362E-01    2.7032674522E-01    2.6938494454E-01
    2.6844496103E-01    2.6750680401E-01    2.6657048266E-01    2.6563600601E-01
    2.6470338295E-01    2.6377262223E-01    2.6284373246E-01    2.6191672214E-01
    2.6099159958E-01    2.6006837301E-01    2.5914705048E-01    2.5822763995E-01
    2.5731014920E-01    2.5639458593E-01    2.5548095767E-01    2.5456927183E-01
    2.5365953570E-01    2.5275175644E-01    2.5184594107E-01    2.5094209651E-01
    2.5004022954E-01    2.4914034680E-01    2.4824245483E-01    2.4734656005E-01
    2.4645266875E-01    2.4556078709E-01    2.4467092113E-01    2.4378307679E-01
    2.4289725990E-01    2.4201347615E-01    2.4113173113E-01    2.4025203030E-01
    2.3937437901E-01    2.3849878252E-01    2.3762524594E-01    2.3675377430E-01
    2.3588437250E-01    2.3501704535E-01    2.3415179752E-01    2.3328863361E-01
    2.3242755808E-01    2.3156857531E-01    2.3071168955E-01    2.2985690498E-01
    2.2900422563E-01    2.2815365548E-01    2.2730519836E-01    2.2645885802E-01
    2.2561463813E-01    2.2477254221E-01    2.2393257374E-01    2.2309473606E-01
    2.2225903243E-01    2.2142546600E-01    2.2059403985E-01    2.1976475695E-01
    2.1893762017E-01    2.1811263229E-01    2.1728979601E-01    2.1646911393E-01
    2.1565058856E-01    2.1483422231E-01    2.1402001753E-01    2.1320797644E-01
    2.1239810121E-01    2.1159039390E-01    2.1078485650E-01    2.0998149090E-01
    2.0918029891E-01    2.0838128227E-01    2.0758444261E-01    2.0678978149E-01
    2.0599730041E-01    2.0520700076E-01    2.0441888386E-01    2.0363295095E-01
    2.0284920319E-01    2.0206764166E-01    2.0128826738E-01    2.0051108126E-01
    1.9973608417E-01    1.9896327689E-01    1.9819266010E-01    1.9742423446E-01
    1.9665800051E-01    1.9589395873E-01    1.9513210955E-01    1.9437245330E-01
    1.9361499024E-01    1.9285972059E-01    1.9210664448E-01    1.9135576196E-01
    1.9060707303E-01    1.8986057763E-01    1.8911627561E-01    1.8837416676E-01
    1.8763425083E-01    1.8689652747E-01    1.8616099629E-01    1.8542765682E-01
    1.8469650855E-01    1.8396755088E-01    1.8324078316E-01    1.8251620470E-01
    1.8179381471E-01    1.8107361238E-01    1.8035559681E-01    1.7963976705E-01
    1.7892612211E-01    1.7821466092E-01    1.7750538236E-01    1.7679828526E-01
    1.7609336840E-01    1.7539063048E-01    1.7469007016E-01    1.7399168606E-01
    1.7329547673E-01    1.7260144067E-01    1.7190957632E-01    1.7121988210E-01
    1.7053235633E-01    1.6984699733E-01    1.6916380333E-01    1.6848277254E-01
    1.6780390311E-01    1.6712719312E-01    1.6645264064E-01    1.6578024367E-01
    1.6511000017E-01    1.6444190806E-01    1.6377596519E-01    1.6311216940E-01
    1.6245051845E-01    1.6179101008E-01    1.6113364199E-01    1.6047841181E-01
    1.5982531716E-01    1.5917435559E-01    1.5852552462E-01    1.5787882174E-01
    1.5723424439E-01    1.5659178995E-01    1.5595145579E-01    1.5531323924E-01
    1.5467713757E-01    1.5404314802E-01    1.5341126780E-01    1.5278149409E-01
    1.5215382400E-01    1.5152825464E-01    1.5090478306E-01    1.5028340629E-01
    1.4966412132E-01    1.4904692510E-01    1.4843181456E-01    1.4781878657E-01
    1.4720783799E-01    1.4659896565E-01    1.4599216633E-01    1.4538743679E-01
    1.4478477374E-01    1.4418417390E-01    1.4358563392E-01    1.4298915042E-01
    1.4239472003E-01    1.4180233930E-01    1.4121200479E-01    1.4062371302E-01
    1.4003746046E-01    1.3945324358E-01    1.3887105881E-01    1.3829090257E-01
    1.3771277122E-01    1.3713666113E-01    1.3656256861E-01    1.3599048998E-01
    1.3542042150E-01    1.3485235944E-01    1.3428630001E-01    1.3372223943E-01
    1.3316017387E-01    1.3260009949E-01    1.3204201242E-01    1.3148590879E-01
    1.3093178467E-01    1.3037963613E-01    1.2982945923E-01    1.2928124998E-01
    1.2873500439E-01    1.2819071845E-01    1.2764838812E-01    1.2710800934E-01
    1.2656957805E-01    1.2603309014E-01    1.2549854151E-01    1.2496592802E-01
    1.2443524552E-01    1.2390648985E-01    1.2337965683E-01    1.2285474225E-01
    1.2233174189E-01    1.2181065153E-01    1.2129146690E-01    1.2077418375E-01
    1.2025879779E-01    1.1974530473E-01    1.1923370025E-01    1.1872398002E-01
    1.1821613971E-01    1.1771017496E-01    1.1720608140E-01    1.1670385465E-01
    1.1620349031E-01    1.1570498397E-01    1.1520833122E-01    1.1471352761E-01
    1.1422056871E-01    1.1372945006E-01    1.1324016718E-01    1.1275271560E-01
    1.1226709083E-01    1.1178328836E-01    1.1130130368E-01    1.1082113227E-01
    1.1034276959E-01    1.0986621111E-01    1.0939145227E-01    1.0891848851E-01
    1.0844731526E-01    1.0797792794E-01    1.0751032197E-01    1.0704449274E-01
    1.0658043567E-01    1.0611814612E-01    1.0565761949E-01    1.0519885115E-01
    1.0474183647E-01    1.0428657081E-01    1.0383304951E-01    1.0338126793E-01
    1.0293122141E-01    1.0248290529E-01    1.0203631488E-01    1.0159144553E-01
    1.0114829254E-01    1.0070685122E-01    1.0026711690E-01    9.9829084863E-02
    9.9392750419E-02    9.8958108861E-02    9.8525155480E-02    9.8093885564E-02
    9.7664294396E-02    9.7236377257E-02    9.6810129423E-02    9.6385546169E-02
    9.5962622765E-02    9.5541354481E-02    9.5121736581E-02    9.4703764331E-02
    9.4287432990E-02    9.3872737819E-02    9.3459674075E-02    9.3048237015E-02
    9.2638421894E-02    9.2230223965E-02    9.1823638480E-02    9.1418660691E-02
    9.1015285849E-02    9.0613509205E-02    9.0213326007E-02    8.9814731507E-02
    8.9417720953E-02    8.9022289596E-02    8.8628432684E-02    8.8236145470E-02
    8.7845423203E-02    8.7456261135E-02    8.7068654520E-02    8.6682598609E-02
    8.6298088659E-02    8.5915119926E-02    8.5533687666E-02    8.5153787139E-02
    8.4775413606E-02    8.4398562330E-02    8.4023228576E-02    8.3649407610E-02
    8.3277094701E-02    8.2906285123E-02    8.2536974148E-02    8.2169157055E-02
    8.1802829122E-02    8.1437985632E-02    8.1074621873E-02    8.0712733132E-02
    8.0352314702E-02    7.9993361880E-02    7.9635869964E-02    7.9279834259E-02
    7.8925250070E-02    7.8572112709E-02    7.8220417492E-02    7.7870159737E-02
    7.7521334768E-02    7.7173937913E-02    7.6827964505E-02    7.6483409880E-02
    7.6140269380E-02    7.5798538353E-02    7.5458212148E-02    7.5119286125E-02
    7.4781755643E-02    7.4445616070E-02    7.4110862778E-02    7.3777491145E-02
    7.3445496555E-02    7.3114874397E-02    7.2785620065E-02    7.2457728960E-02
    7.2131196488E-02    7.1806018062E-02    7.1482189100E-02    7.1159705028E-02
    7.0838561276E-02    7.0518753281E-02    7.0200276489E-02    6.9883126348E-02
    6.9567298317E-02    6.9252787859E-02    6.8939590444E-02    6.8627701550E-02
    6.8317116661E-02    6.8007831269E-02    6.7699840872E-02    6.7393140976E-02
    6.7087727093E-02    6.6783594744E-02    6.6480739457E-02    6.6179156766E-02
    6.5878842214E-02    6.5579791351E-02    6.5281999736E-02    6.4985462933E-02
    6.4690176517E-02    6.4396136067E-02    6.4103337175E-02    6.3811775436E-02
    6.3521446457E-02    6.3232345850E-02    6.2944469237E-02    6.2657812248E-02
    6.2372370521E-02    6.2088139702E-02    6.1805115447E-02    6.1523293418E-02
    6.1242669288E-02    6.0963238737E-02    6.0684997454E-02    6.0407941136E-02
    6.0132065491E-02    5.9857366233E-02    5.9583839087E-02    5.9311479785E-02
    5.9040284070E-02    5.8770247692E-02    5.8501366412E-02    5.8233635997E-02
    5.7967052227E-02    5.7701610888E-02    5.7437307777E-02    5.7174138699E-02
    5.6912099470E-02    5.6651185914E-02    5.6391393863E-02    5.6132719162E-02
    5.5875157663E-02    5.5618705228E-02    5.5363357727E-02    5.5109111042E-02
    5.4855961064E-02    5.4603903693E-02    5.4352934838E-02    5.4103050420E-02
    5.3854246366E-02    5.3606518617E-02    5.3359863120E-02    5.3114275835E-02
    5.2869752730E-02    5.2626289782E-02    5.2383882981E-02    5.2142528324E-02
    5.1902221819E-02    5.1662959484E-02    5.1424737346E-02    5.1187551445E-02
    5.0951397828E-02    5.0716272553E-02    5.0482171688E-02    5.0249091311E-02
    5.0017027511E-02    4.9785976387E-02    4.9555934047E-02    4.9326896610E-02
    4.9098860205E-02    4.8871820972E-02    4.8645775061E-02    4.8420718630E-02
    4.8196647851E-02    4.7973558904E-02    4.7751447980E-02    4.7530311279E-02
    4.7310145014E-02    4.7090945406E-02    4.6872708688E-02    4.6655431102E-02
    4.6439108901E-02    4.6223738349E-02    4.6009315719E-02    4.5795837296E-02
    4.5583299375E-02    4.5371698260E-02    4.5161030268E-02    4.4951291725E-02
    4.4742478967E-02    4.4534588341E-02    4.4327616205E-02    4.4121558928E-02
    4.3916412887E-02    4.3712174472E-02    4.3508840083E-02    4.3306406130E-02
    4.3104869034E-02    4.2904225226E-02    4.2704471148E-02    4.2505603252E-02
    4.2307618001E-02    4.2110511869E-02    4.1914281340E-02    4.1718922909E-02
    4.1524433080E-02    4.1330808369E-02    4.1138045304E-02    4.0946140420E-02
    4.0755090265E-02    4.0564891397E-02    4.0375540385E-02    4.0187033808E-02
    3.9999368255E-02    3.9812540327E-02    3.9626546634E-02    3.9441383799E-02
    3.9257048452E-02    3.9073537236E-02    3.8890846805E-02    3.8708973821E-02
    3.8527914959E-02    3.8347666904E-02    3.8168226350E-02    3.7989590003E-02
    3.7811754580E-02    3.7634716807E-02    3.7458473421E-02    3.7283021170E-02
    3.7108356812E-02    3.6934477115E-02    3.6761378860E-02    3.6589058834E-02
    3.6417513839E-02    3.6246740685E-02    3.6076736192E-02    3.5907497193E-02
    3.5739020528E-02    3.5571303051E-02    3.5404341623E-02    3.5238133118E-02
    3.5072674419E-02    3.4907962420E-02    3.4743994024E-02    3.4580766147E-02
    3.4418275713E-02    3.4256519658E-02    3.4095494926E-02    3.3935198474E-02
    3.3775627267E-02    3.3616778282E-02    3.3458648505E-02    3.3301234934E-02
    3.3144534575E-02    3.2988544445E-02    3.2833261573E-02    3.2678682996E-02
    3.2524805762E-02    3.2371626929E-02    3.2219143564E-02    3.2067352748E-02
    3.1916251568E-02    3.1765837122E-02    3.1616106520E-02    3.1467056880E-02
    3.1318685331E-02    3.1170989013E-02    3.1023965073E-02    3.0877610672E-02
    3.0731922978E-02    3.0586899170E-02    3.0442536436E-02    3.0298831977E-02
    3.0155783001E-02    3.0013386726E-02    2.9871640381E-02    2.9730541205E-02
    2.9590086446E-02    2.9450273363E-02    2.9311099223E-02    2.9172561304E-02
    2.9034656895E-02    2.8897383292E-02    2.8760737803E-02    2.8624717744E-02
    2.8489320444E-02    2.8354543237E-02    2.8220383470E-02    2.8086838498E-02
    2.7953905688E-02    2.7821582414E-02    2.7689866060E-02    2.7558754022E-02
    2.7428243702E-02    2.7298332514E-02    2.7169017881E-02    2.7040297235E-02
    2.6912168017E-02    2.6784627680E-02    2.6657673684E-02    2.6531303499E-02
    2.6405514605E-02    2.6280304490E-02    2.6155670653E-02    2.6031610602E-02
    2.5908121852E-02    2.5785201932E-02    2.5662848376E-02    2.5541058729E-02
    2.5419830544E-02    2.5299161386E-02    2.5179048827E-02    2.5059490447E-02
    2.4940483839E-02    2.4822026601E-02    2.4704116343E-02    2.4586750683E-02
    2.4469927247E-02    2.4353643672E-02    2.4237897604E-02    2.4122686695E-02
    2.4008008610E-02    2.3893861020E-02    2.3780241607E-02    2.3667148059E-02
    2.3554578077E-02    2.3442529367E-02    2.3330999645E-02    2.3219986638E-02
    2.3109488079E-02    2.2999501711E-02    2.2890025286E-02    2.2781056563E-02
    2.2672593312E-02    2.2564633311E-02    2.2457174344E-02    2.2350214209E-02
    2.2243750707E-02    2.2137781651E-02    2.2032304862E-02    2.1927318169E-02
    2.1822819410E-02    2.1718806430E-02    2.1615277084E-02    2.1512229236E-02
    2.1409660756E-02    2.1307569526E-02    2.1205953432E-02    2.1104810371E-02
    2.1004138249E-02    2.0903934979E-02    2.0804198482E-02    2.0704926687E-02
    2.0606117533E-02    2.0507768966E-02    2.0409878941E-02    2.0312445419E-02
    2.0215466371E-02    2.0118939776E-02    2.0022863621E-02    1.9927235900E-02
    1.9832054617E-02    1.9737317783E-02    1.9643023416E-02    1.9549169543E-02
    1.9455754198E-02    1.9362775426E-02    1.9270231276E-02    1.9178119806E-02
    1.9086439084E-02    1.8995187182E-02    1.8904362184E-02    1.8813962178E-02
    1.8723985263E-02    1.8634429543E-02    1.8545293131E-02    1.8456574148E-02
    1.8368270722E-02    1.8280380989E-02    1.8192903092E-02    1.8105835182E-02
    1.8019175418E-02    1.7932921966E-02    1.7847072999E-02    1.7761626699E-02
    1.7676581254E-02    1.7591934859E-02    1.7507685720E-02    1.7423832045E-02
    1.7340372054E-02    1.7257303972E-02    1.7174626031E-02    1.7092336472E-02
    1.7010433542E-02    1.6928915496E-02    1.6847780595E-02    1.6767027109E-02
    1.6686653314E-02    1.6606657493E-02    1.6527037936E-02    1.6447792942E-02
    1.6368920814E-02    1.6290419865E-02    1.6212288414E-02    1.6134524785E-02
    1.6057127312E-02    1.5980094335E-02    1.5903424200E-02    1.5827115260E-02
    1.5751165877E-02    1.5675574417E-02    1.5600339255E-02    1.5525458772E-02
    1.5450931354E-02    1.5376755398E-02    1.5302929304E-02    1.5229451481E-02
    1.5156320342E-02    1.5083534310E-02    1.5011091812E-02    1.4938991283E-02
    1.4867231165E-02    1.4795809906E-02    1.4724725959E-02    1.4653977786E-02
    1.4583563855E-02    1.4513482639E-02    1.4443732620E-02    1.4374312283E-02
    1.4305220122E-02    1.4236454638E-02    1.4168014336E-02    1.4099897729E-02
    1.4032103335E-02    1.3964629680E-02    1.3897475296E-02    1.3830638720E-02
    1.3764118496E-02    1.3697913174E-02    1.3632021311E-02    1.3566441469E-02
    1.3501172217E-02    1.3436212131E-02    1.3371559790E-02    1.3307213782E-02
    1.3243172700E-02    1.3179435144E-02    1.3115999719E-02    1.3052865035E-02
    1.2990029711E-02    1.2927492368E-02    1.2865251637E-02    1.2803306153E-02
    1.2741654555E-02    1.2680295492E-02    1.2619227616E-02    1.2558449584E-02
    1.2497960062E-02    1.2437757719E-02    1.2377841232E-02    1.2318209281E-02
    1.2258860554E-02    1.2199793745E-02    1.2141007551E-02    1.2082500676E-02
    1.2024271832E-02    1.1966319733E-02    1.1908643101E-02    1.1851240661E-02
    1.1794111148E-02    1.1737253297E-02    1.1680665853E-02    1.1624347564E-02
    1.1568297185E-02    1.1512513475E-02    1.1456995199E-02    1.1401741128E-02
    1.1346750038E-02    1.1292020709E-02    1.1237551929E-02    1.1183342490E-02
    1.1129391188E-02    1.1075696826E-02    1.1022258212E-02    1.0969074159E-02
    1.0916143485E-02    1.0863465013E-02    1.0811037572E-02    1.0758859997E-02
    1.0706931124E-02    1.0655249799E-02    1.0603814871E-02    1.0552625194E-02
    1.0501679627E-02    1.0450977034E-02    1.0400516285E-02    1.0350296254E-02
    1.0300315820E-02    1.0250573867E-02    1.0201069285E-02    1.0151800967E-02
    1.0102767813E-02    1.0053968727E-02    1.0005402617E-02    9.9570683964E-03
    9.9089649840E-03    9.8610913031E-03    9.8134462815E-03    9.7660288519E-03
    9.7188379520E-03    9.6718725239E-03    9.6251315145E-03    9.5786138755E-03
    9.5323185632E-03    9.4862445385E-03    9.4403907671E-03    9.3947562191E-03
    9.3493398693E-03    9.3041406971E-03    9.2591576865E-03    9.2143898260E-03
    9.1698361085E-03    9.1254955315E-03    9.0813670972E-03    9.0374498119E-03
    8.9937426866E-03    8.9502447366E-03    8.9069549817E-03    8.8638724461E-03
    8.8209961583E-03    8.7783251513E-03    8.7358584622E-03    8.6935951328E-03
    8.6515342088E-03    8.6096747405E-03    8.5680157822E-03    8.5265563928E-03
    8.4852956352E-03    8.4442325765E-03    8.4033662882E-03    8.3626958457E-03
    8.3222203288E-03    8.2819388214E-03    8.2418504115E-03    8.2019541913E-03
    8.1622492569E-03    8.1227347088E-03    8.0834096512E-03    8.0442731926E-03
    8.0053244456E-03    7.9665625265E-03    7.9279865559E-03    7.8895956582E-03
    7.8513889619E-03    7.8133655993E-03    7.7755247069E-03    7.7378654247E-03
    7.7003868970E-03    7.6630882718E-03    7.6259687010E-03    7.5890273403E-03
    7.5522633494E-03    7.5156758915E-03    7.4792641339E-03    7.4430272477E-03
    7.4069644075E-03    7.3710747920E-03    7.3353575832E-03    7.2998119674E-03
    7.2644371341E-03    7.2292322767E-03    7.1941965924E-03    7.1593292818E-03
    7.1246295493E-03    7.0900966030E-03    7.0557296544E-03    7.0215279188E-03
    6.9874906150E-03    6.9536169654E-03    6.9199061959E-03    6.8863575360E-03
    6.8529702187E-03    6.8197434805E-03    6.7866765615E-03    6.7537687051E-03
    6.7210191582E-03    6.6884271713E-03    6.6559919983E-03    6.6237128963E-03
    6.5915891261E-03    6.5596199517E-03    6.5278046405E-03    6.4961424634E-03
    6.4646326945E-03    6.4332746113E-03    6.4020674946E-03    6.3710106285E-03
    6.3401033004E-03    6.3093448009E-03    6.2787344241E-03    6.2482714671E-03
    6.2179552304E-03    6.1877850175E-03    6.1577601354E-03    6.1278798941E-03
    6.0981436068E-03    6.0685505899E-03    6.0391001630E-03    6.0097916487E-03
    5.9806243729E-03    5.9515976644E-03    5.9227108554E-03    5.8939632808E-03
    5.8653542789E-03    5.8368831909E-03    5.8085493611E-03    5.7803521368E-03
    5.7522908683E-03    5.7243649089E-03    5.6965736150E-03    5.6689163459E-03
    5.6413924638E-03    5.6140013340E-03    5.5867423246E-03    5.5596148066E-03
    5.5326181542E-03    5.5057517442E-03    5.4790149564E-03    5.4524071734E-03
    5.4259277808E-03    5.3995761670E-03    5.3733517232E-03    5.3472538434E-03
    5.3212819245E-03    5.2954353662E-03    5.2697135709E-03    5.2441159438E-03
    5.2186418929E-03    5.1932908290E-03    5.1680621655E-03    5.1429553187E-03
    5.1179697075E-03    5.0931047535E-03    5.0683598811E-03    5.0437345172E-03
    5.0192280915E-03    4.9948400363E-03    4.9705697867E-03    4.9464167802E-03
    4.9223804570E-03    4.8984602600E-03    4.8746556346E-03    4.8509660289E-03
    4.8273908934E-03    4.8039296813E-03    4.7805818483E-03    4.7573468526E-03
    4.7342241551E-03    4.7112132191E-03    4.6883135103E-03    4.6655244971E-03
    4.6428456502E-03    4.6202764430E-03    4.5978163511E-03    4.5754648527E-03
    4.5532214284E-03    4.5310855614E-03    4.5090567370E-03    4.4871344431E-03
    4.4653181701E-03    4.4436074105E-03    4.4220016595E-03    4.4005004144E-03
    4.3791031749E-03    4.3578094432E-03    4.3366187238E-03    4.3155305233E-03
    4.2945443508E-03    4.2736597178E-03    4.2528761379E-03    4.2321931270E-03
    4.2116102034E-03    4.1911268875E-03    4.1707427021E-03    4.1504571722E-03
    4.1302698249E-03    4.1101801898E-03    4.0901877983E-03    4.0702921844E-03
    4.0504928842E-03    4.0307894357E-03    4.0111813795E-03    3.9916682579E-03
    3.9722496159E-03    3.9529250001E-03    3.9336939595E-03    3.9145560454E-03
    3.8955108107E-03    3.8765578110E-03    3.8576966035E-03    3.8389267477E-03
    3.8202478053E-03    3.8016593399E-03    3.7831609171E-03    3.7647521046E-03
    3.7464324724E-03    3.7282015921E-03    3.7100590375E-03    3.6920043846E-03
    3.6740372111E-03    3.6561570969E-03    3.6383636237E-03    3.6206563754E-03
    3.6030349376E-03    3.5854988982E-03    3.5680478467E-03    3.5506813747E-03
    3.5333990758E-03    3.5162005454E-03    3.4990853807E-03    3.4820531812E-03
    3.4651035479E-03    3.4482360838E-03    3.4314503939E-03    3.4147460849E-03
    3.3981227655E-03    3.3815800461E-03    3.3651175391E-03    3.3487348587E-03
    3.3324316209E-03    3.3162074434E-03    3.3000619458E-03    3.2839947497E-03
    3.2680054782E-03    3.2520937562E-03    3.2362592107E-03    3.2205014701E-03
    3.2048201647E-03    3.1892149265E-03    3.1736853895E-03    3.1582311891E-03
    3.1428519625E-03    3.1275473488E-03    3.1123169887E-03    3.0971605245E-03
    3.0820776004E-03    3.0670678621E-03    3.0521309571E-03    3.0372665346E-03
    3.0224742454E-03    3.0077537418E-03    2.9931046781E-03    2.9785267100E-03
    2.9640194948E-03    2.9495826917E-03    2.9352159612E-03    2.9209189656E-03
    2.9066913688E-03    2.8925328361E-03    2.8784430347E-03    2.8644216332E-03
    2.8504683018E-03    2.8365827122E-03    2.8227645378E-03    2.8090134535E-03
    2.7953291357E-03    2.7817112624E-03    2.7681595131E-03    2.7546735688E-03
    2.7412531121E-03    2.7278978271E-03    2.7146073992E-03    2.7013815156E-03
    2.6882198648E-03    2.6751221369E-03    2.6620880234E-03    2.6491172172E-03
    2.6362094128E-03    2.6233643061E-03    2.6105815945E-03    2.5978609767E-03
    2.5852021530E-03    2.5726048250E-03    2.5600686959E-03    2.5475934701E-03
    2.5351788535E-03    2.5228245534E-03    2.5105302786E-03    2.4982957391E-03
    2.4861206464E-03    2.4740047135E-03    2.4619476544E-03    2.4499491848E-03
    2.4380090217E-03    2.4261268833E-03    2.4143024893E-03    2.4025355607E-03
    2.3908258198E-03    2.3791729902E-03    2.3675767969E-03    2.3560369662E-03
    2.3445532257E-03    2.3331253042E-03    2.3217529320E-03    2.3104358405E-03
    2.2991737624E-03    2.2879664319E-03    2.2768135841E-03    2.2657149558E-03
    2.2546702847E-03    2.2436793098E-03    2.2327417716E-03    2.2218574116E-03
    2.2110259727E-03    2.2002471988E-03    2.1895208352E-03    2.1788466285E-03
    2.1682243262E-03    2.1576536775E-03    2.1471344322E-03    2.1366663418E-03
    2.1262491588E-03    2.1158826368E-03    2.1055665307E-03    2.0953005965E-03
    2.0850845915E-03    2.0749182740E-03    2.0648014035E-03    2.0547337407E-03
    2.0447150475E-03    2.0347450867E-03    2.0248236226E-03    2.0149504203E-03
    2.0051252463E-03    1.9953478679E-03    1.9856180538E-03    1.9759355736E-03
    1.9663001983E-03    1.9567116997E-03    1.9471698508E-03    1.9376744257E-03
    1.9282251995E-03    1.9188219486E-03    1.9094644502E-03    1.9001524828E-03
    1.8908858258E-03    1.8816642597E-03    1.8724875661E-03    1.8633555276E-03
    1.8542679279E-03    1.8452245517E-03    1.8362251848E-03    1.8272696138E-03
    1.8183576266E-03    1.8094890120E-03    1.8006635597E-03    1.7918810608E-03
    1.7831413069E-03    1.7744440909E-03    1.7657892067E-03    1.7571764491E-03
    1.7486056138E-03    1.7400764978E-03    1.7315888987E-03    1.7231426152E-03
    1.7147374472E-03    1.7063731953E-03    1.6980496610E-03    1.6897666470E-03
    1.6815239569E-03    1.6733213950E-03    1.6651587669E-03    1.6570358788E-03
    1.6489525380E-03    1.6409085529E-03    1.6329037324E-03    1.6249378867E-03
    1.6170108267E-03    1.6091223643E-03    1.6012723123E-03    1.5934604844E-03
    1.5856866951E-03    1.5779507600E-03    1.5702524953E-03    1.5625917184E-03
    1.5549682473E-03    1.5473819011E-03    1.5398324996E-03    1.5323198636E-03
    1.5248438147E-03    1.5174041754E-03    1.5100007688E-03    1.5026334194E-03
    1.4953019520E-03    1.4880061924E-03    1.4807459676E-03    1.4735211048E-03
    1.4663314326E-03    1.4591767800E-03    1.4520569772E-03    1.4449718550E-03
    1.4379212449E-03    1.4309049795E-03    1.4239228921E-03    1.4169748167E-03
    1.4100605882E-03    1.4031800422E-03    1.3963330152E-03    1.3895193445E-03
    1.3827388682E-03    1.3759914249E-03    1.3692768544E-03    1.3625949970E-03
    1.3559456938E-03    1.3493287867E-03    1.3427441185E-03    1.3361915325E-03
    1.3296708728E-03    1.3231819846E-03    1.3167247134E-03    1.3102989056E-03
    1.3039044085E-03    1.2975410699E-03    1.2912087384E-03    1.2849072636E-03
    1.2786364954E-03    1.2723962846E-03    1.2661864829E-03    1.2600069424E-03
    1.2538575162E-03    1.2477380579E-03    1.2416484220E-03    1.2355884635E-03
    1.2295580381E-03    1.2235570025E-03    1.2175852138E-03    1.2116425298E-03
    1.2057288091E-03    1.1998439110E-03    1.1939876954E-03    1.1881600228E-03
    1.1823607547E-03    1.1765897528E-03    1.1708468798E-03    1.1651319990E-03
    1.1594449743E-03    1.1537856704E-03    1.1481539524E-03    1.1425496863E-03
    1.1369727386E-03    1.1314229765E-03    1.1259002679E-03    1.1204044811E-03
    1.1149354854E-03    1.1094931505E-03    1.1040773467E-03    1.0986879451E-03
    1.0933248172E-03    1.0879878354E-03    1.0826768724E-03    1.0773918018E-03
    1.0721324977E-03    1.0668988347E-03    1.0616906881E-03    1.0565079339E-03
    1.0513504486E-03    1.0462181092E-03    1.0411107936E-03    1.0360283799E-03
    1.0309707470E-03    1.0259377745E-03    1.0209293424E-03    1.0159453313E-03
    1.0109856224E-03    1.0060500975E-03    1.0011386390E-03    9.9625112971E-04
    9.9138745325E-04    9.8654749363E-04    9.8173113547E-04    9.7693826395E-04
   </PP_CHI.3>
 </PP_PSWFC>
 <PP_NLCC type="real"  size="1940" columns="4">
    6.7364225208E-01    6.7358822467E-01    6.7342616023E-01    6.7315611219E-01
    6.7277816956E-01    6.7229245690E-01    6.7169913433E-01    6.7099839744E-01
    6.7019047728E-01    6.6927564023E-01    6.6825418799E-01    6.6712645747E-01
    6.6589282067E-01    6.6455368464E-01    6.6310949127E-01    6.6156071727E-01
    6.5990787396E-01    6.5815150714E-01    6.5629219697E-01    6.5433055776E-01
    6.5226723783E-01    6.5010291931E-01    6.4783831792E-01    6.4547418281E-01
    6.4301129635E-01    6.4045047384E-01    6.3779256333E-01    6.3503844539E-01
    6.3218903278E-01    6.2924527027E-01    6.2620813431E-01    6.2307863278E-01
    6.1985780465E-01    6.1654671974E-01    6.1314647834E-01    6.0965821093E-01
    6.0608307784E-01    6.0242226886E-01    5.9867700297E-01    5.9484852788E-01
    5.9093811974E-01    5.8694708270E-01    5.8287674853E-01    5.7872847622E-01
    5.7450365159E-01    5.7020368680E-01    5.6583001998E-01    5.6138411475E-01
    5.5686745979E-01    5.5228156835E-01    5.4762797780E-01    5.4290824911E-01
    5.3812396642E-01    5.3327673644E-01    5.2836818804E-01    5.2339997164E-01
    5.1837375875E-01    5.1329124135E-01    5.0815413138E-01    5.0296416020E-01
    4.9772307794E-01    4.9243265299E-01    4.8709467138E-01    4.8171093614E-01
    4.7628326674E-01    4.7081349845E-01    4.6530348169E-01    4.5975508139E-01
    4.5417017635E-01    4.4855065855E-01    4.4289843253E-01    4.3721541462E-01
    4.3150353232E-01    4.2576472358E-01    4.2000093606E-01    4.1421412642E-01
    4.0840625960E-01    4.0257930806E-01    3.9673525103E-01    3.9087607373E-01
    3.8500376664E-01    3.7912032466E-01    3.7322774637E-01    3.6732803318E-01
    3.6142318855E-01    3.5551521714E-01    3.4960612399E-01    3.4369791368E-01
    3.3779258947E-01    3.3189215243E-01    3.2599860058E-01    3.2011392798E-01
    3.1424012389E-01    3.0837917180E-01    3.0253304855E-01    2.9670372342E-01
    2.9089315717E-01    2.8510330110E-01    2.7933609610E-01    2.7359347170E-01
    2.6787734508E-01    2.6218962009E-01    2.5653218625E-01    2.5090691776E-01
    2.4531567248E-01    2.3976029090E-01    2.3424259512E-01    2.2876438779E-01
    2.2332745106E-01    2.1793354555E-01    2.1258440920E-01    2.0728175628E-01
    2.0202727622E-01    1.9682263255E-01    1.9166946176E-01    1.8656937220E-01
    1.8152394295E-01    1.7653472263E-01    1.7160322830E-01    1.6673094426E-01
    1.6191932091E-01    1.5716977355E-01    1.5248368115E-01    1.4786238522E-01
    1.4330718854E-01    1.3881935396E-01    1.3440010315E-01    1.3005061538E-01
    1.2577202625E-01    1.2156542643E-01    1.1743186038E-01    1.1337232509E-01
    1.0938776875E-01    1.0547908949E-01    1.0164713403E-01    9.7892696367E-02
    9.4216516453E-02    9.0619278843E-02    8.7101611339E-02    8.3664083635E-02
    8.0307205935E-02    7.7031427576E-02    7.3837135632E-02    7.0724653511E-02
    6.7694239544E-02    6.4746085558E-02    6.1880315446E-02    5.9096983721E-02
    5.6396074066E-02    5.3777497870E-02    5.1241092752E-02    4.8786621082E-02
    4.6413768485E-02    4.4122142341E-02    4.1911270265E-02    3.9780598595E-02
    3.7729490848E-02    3.5757226184E-02    3.3862997850E-02    3.2045911617E-02
    3.0304984210E-02    2.8639141719E-02    2.7047218013E-02    2.5527953133E-02
    2.4079991677E-02    2.2701881184E-02    2.1392070495E-02    2.0148908111E-02
    1.8970640543E-02    1.7855410645E-02    1.6801255946E-02    1.5806106963E-02
    1.4867785509E-02    1.3984002992E-02    1.3152358700E-02    1.2370338090E-02
    1.1635311702E-02    1.0944586747E-02    1.0295565643E-02    9.6857957929E-03
    9.1129665971E-03    8.5749060135E-03    8.0695692144E-03    7.5950186579E-03
    7.1494155947E-03    6.7310149600E-03    6.3381605976E-03    5.9692807864E-03
    5.6228840443E-03    5.2975551914E-03    4.9919516529E-03    4.7047999822E-03
    4.4348925892E-03    4.1810846573E-03    3.9422912221E-03    3.7174845204E-03
    3.5056950284E-03    3.3060878559E-03    3.1179534449E-03    2.9406266205E-03
    2.7734811458E-03    2.6159273410E-03    2.4674099468E-03    2.3274061014E-03
    2.1954234361E-03    2.0709982849E-03    1.9536939991E-03    1.8430993613E-03
    1.7388270936E-03    1.6405124538E-03    1.5478119139E-03    1.4604019172E-03
    1.3779777086E-03    1.3002522335E-03    1.2269551022E-03    1.1578316145E-03
    1.0926418428E-03    1.0311597683E-03    9.7317246844E-04    9.1847935236E-04
    8.6689144079E-04    8.1823068875E-04    7.7232934788E-04    7.2902936625E-04
    6.8818182346E-04    6.4964639885E-04    6.1329087099E-04    5.7899064645E-04
    5.4662831631E-04    5.1609323853E-04    4.8728114491E-04    4.6009377098E-04
    4.3443850760E-04    4.1022807296E-04    3.8738020367E-04    3.6581736401E-04
    3.4546647213E-04    3.2625864218E-04    3.0812894161E-04    2.9101616248E-04
    2.7486260625E-04    2.5961388100E-04    2.4521871051E-04    2.3162875446E-04
    2.1879843906E-04    2.0668479754E-04    1.9524731994E-04    1.8444781160E-04
    1.7425025981E-04    1.6462070834E-04    1.5552713907E-04    1.4693936064E-04
    1.3882890341E-04    1.3116892060E-04    1.2393409509E-04    1.1710055165E-04
    1.1064577417E-04    1.0454852773E-04    9.8788785135E-05    9.3347657669E-05
    8.8207329852E-05    8.3350997928E-05    7.8762811887E-05    7.4427820811E-05
    7.0331921343E-05    6.6461809096E-05    6.2804932843E-05    5.9349451308E-05
    5.6084192414E-05    5.2998614855E-05    5.0082771842E-05    4.7327276904E-05
    4.4723271644E-05    4.2262395308E-05    3.9936756106E-05    3.7738904149E-05
    3.5661805957E-05    3.3698820419E-05    3.1843676150E-05    3.0090450173E-05
    2.8433547843E-05    2.6867683973E-05    2.5387865073E-05    2.3989372673E-05
    2.2667747643E-05    2.1418775484E-05    2.0238472515E-05    1.9123072910E-05
    1.8069016542E-05    1.7072937567E-05    1.6131653716E-05    1.5242156241E-05
    1.4401600467E-05    1.3607296910E-05    1.2856702923E-05    1.2147414831E-05
    1.1477160507E-05    1.0843792372E-05    1.0245280784E-05    9.6797077711E-06
    9.1452611011E-06    8.6402286551E-06    8.1629930766E-06    7.7120266817E-06
    7.2858866079E-06    6.8832101831E-06    6.5027105060E-06    6.1431722156E-06
    5.8034474151E-06    5.4824519138E-06    5.1791613776E-06    4.8926071270E-06
    4.6218725410E-06    4.3660902570E-06    4.1244396484E-06    3.8961444110E-06
    3.6804702584E-06    3.4767227278E-06    3.2842450900E-06    3.1024163607E-06
    2.9306494092E-06    2.7683891602E-06    2.6151108859E-06    2.4703185830E-06
    2.3335434330E-06    2.2043423402E-06    2.0822965453E-06    1.9670103107E-06
    1.8581096732E-06    1.7552412637E-06    1.6580711866E-06    1.5662839600E-06
    1.4795815113E-06    1.3976822260E-06    1.3203200478E-06    1.2472436260E-06
    1.1782155094E-06    1.1130113831E-06    1.0514193466E-06    9.9323923108E-07
    9.3828195321E-07    8.8636890450E-07    8.3733137365E-07    7.9101000036E-07
    7.4725425902E-07    7.0592197056E-07    6.6687884108E-07    6.2999802569E-07
    5.9515971632E-07    5.6225075223E-07    5.3116425186E-07    5.0179926496E-07
    4.7406044396E-07    4.4785773340E-07    4.2310607654E-07    3.9972513815E-07
    3.7763904268E-07    3.5677612688E-07    3.3706870612E-07    3.1845285372E-07
    3.0086819241E-07    2.8425769751E-07    2.6856751088E-07    2.5374676543E-07
    2.3974741908E-07    2.2652409826E-07    2.1403395064E-07    2.0223650420E-07
    1.9109353514E-07    1.8056894909E-07    1.7062867146E-07    1.6124053721E-07
    1.5237418077E-07    1.4400093000E-07    1.3609370482E-07    1.2862692065E-07
    1.2157639641E-07    1.1491926727E-07    1.0863390215E-07    1.0269982631E-07
    9.7097649009E-08    9.1808996772E-08    8.6816452243E-08    8.2103498928E-08
    7.7654471727E-08    7.3454513058E-08    6.9489534103E-08    6.5746180498E-08
    6.2211801624E-08    5.8874422579E-08    5.5722717938E-08    5.2745986526E-08
    4.9934126585E-08    4.7277610944E-08    4.4767461969E-08    4.2395226262E-08
    4.0152949181E-08    3.8033149350E-08    3.6028793364E-08    3.4133270878E-08
    3.2340370311E-08    3.0644255293E-08    2.9039442014E-08    2.7520777562E-08
    2.6083419317E-08    2.4722815430E-08    2.3434686406E-08    2.2215007768E-08
    2.1059993799E-08    1.9966082298E-08    1.8929920336E-08    1.7948350941E-08
    1.7018400669E-08    1.6137268019E-08    1.5302312623E-08    1.4511045172E-08
    1.3761118021E-08    1.3050316440E-08    1.2376550444E-08    1.1737847188E-08
    1.1132343860E-08    1.0558281056E-08    1.0013996593E-08    9.4979197295E-09
    9.0085657662E-09    8.5445309982E-09    8.1044879927E-09    7.6871811707E-09
    7.2914226694E-09    6.9160884670E-09    6.5601147499E-09    6.2224945067E-09
    5.9022743325E-09    5.5985514291E-09    5.3104707877E-09    5.0372225424E-09
    4.7780394818E-09    4.5321947093E-09    4.2989994411E-09    4.0778009345E-09
    3.8679805359E-09    3.6689518425E-09    3.4801589700E-09    3.3010749187E-09
    3.1312000329E-09    2.9700605472E-09    2.8172072143E-09    2.6722140099E-09
    2.5346769085E-09    2.4042127282E-09    2.2804580373E-09    2.1630681223E-09
    2.0517160109E-09    1.9460915482E-09    1.8459005231E-09    1.7508638408E-09
    1.6607167404E-09    1.5752080533E-09    1.4940995020E-09    1.4171650345E-09
    1.3441901955E-09    1.2749715288E-09    1.2093160128E-09    1.1470405241E-09
    1.0879713293E-09    1.0319436043E-09    9.7880097667E-10    9.2839509331E-10
    8.8058520955E-10    8.3523779973E-10    7.9222618776E-10    7.5143019665E-10
    7.1273581605E-10    6.7603488680E-10    6.4122480164E-10    6.0820822127E-10
    5.7689280485E-10    5.4719095431E-10    5.1901957171E-10    4.9229982896E-10
    4.6695694930E-10    4.4291999993E-10    4.2012169517E-10    3.9849820971E-10
    3.7798900132E-10    3.5853664267E-10    3.4008666161E-10    3.2258738972E-10
    3.0598981849E-10    2.9024746285E-10    2.7531623171E-10    2.6115430504E-10
    2.4772201728E-10    2.3498174666E-10    2.2289781016E-10    2.1143636394E-10
    2.0056530872E-10    1.9025420008E-10    1.8047416337E-10    1.7119781288E-10
    1.6239917524E-10    1.5405361672E-10    1.4613777422E-10    1.3862948983E-10
    1.3150774877E-10    1.2475262043E-10    1.1834520256E-10    1.1226756818E-10
    1.0650271537E-10    1.0103451952E-10    9.5847688083E-11    9.0927717680E-11
    8.6260853357E-11    8.1834049978E-11    7.7634935597E-11    7.3651776708E-11
    6.9873445293E-11    6.6289387569E-11    6.2889594337E-11    5.9664572871E-11
    5.6605320248E-11    5.3703298058E-11    5.0950408418E-11    4.8338971222E-11
    4.5861702568E-11    4.3511694297E-11    4.1282394586E-11    3.9167589550E-11
    3.7161385785E-11    3.5258193822E-11    3.3452712427E-11    3.1739913719E-11
    3.0115029051E-11    2.8573535627E-11    2.7111143806E-11    2.5723785061E-11
    2.4407600563E-11    2.3158930358E-11    2.1974303094E-11    2.0850426288E-11
    1.9784177095E-11    1.8772593543E-11    1.7812866242E-11    1.6902330497E-11
    1.6038458851E-11    1.5218853996E-11    1.4441242061E-11    1.3703466244E-11
    1.3003480771E-11    1.2339345167E-11    1.1709218830E-11    1.1111355876E-11
    1.0544100254E-11    1.0005881116E-11    9.4952084231E-12    9.0106687799E-12
    8.5509214825E-12    8.1146947726E-12    7.7007822839E-12    7.3080396723E-12
    6.9353814202E-12    6.5817778054E-12    6.2462520270E-12    5.9278774795E-12
    5.6257751672E-12    5.3391112526E-12    5.0670947310E-12    4.8089752254E-12
    4.5640408947E-12    4.3316164502E-12    4.1110612742E-12    3.9017676360E-12
    3.7031589994E-12    3.5146884179E-12    3.3358370123E-12    3.1661125272E-12
    3.0050479614E-12    2.8522002696E-12    2.7071491304E-12    2.5694957777E-12
    2.4388618931E-12    2.3148885548E-12    2.1972352403E-12    2.0855788814E-12
    1.9796129671E-12    1.8790466933E-12    1.7836041553E-12    1.6930235834E-12
    1.6070566162E-12    1.5254676126E-12    1.4480329985E-12    1.3745406475E-12
    1.3047892930E-12    1.2385879710E-12    1.1757554916E-12    1.1161199370E-12
    1.0595181863E-12    1.0057954641E-12    9.5480491225E-13    9.0640718407E-13
    8.6047005906E-13    8.1686807758E-13    7.7548219423E-13    7.3619944913E-13
    6.9891265595E-13    6.6352010614E-13    6.2992528821E-13    5.9803662148E-13
    5.6776720355E-13    5.3903457063E-13    5.1176047031E-13    4.8587064587E-13
    4.6129463174E-13    4.3796555941E-13    4.1581997336E-13    3.9479765636E-13
    3.7484146380E-13    3.5589716647E-13    3.3791330143E-13    3.2084103052E-13
    3.0463400611E-13    2.8924824379E-13    2.7464200151E-13    2.6077566494E-13
    2.4761163878E-13    2.3511424349E-13    2.2324961745E-13    2.1198562410E-13
    2.0129176374E-13    1.9113909000E-13    1.8150013047E-13    1.7234881144E-13
    1.6366038651E-13    1.5541136879E-13    1.4757946667E-13    1.4014352277E-13
    1.3308345610E-13    1.2638020710E-13    1.2001568560E-13    1.1397272131E-13
    1.0823501695E-13    1.0278710372E-13    9.7614299081E-14    9.2702666634E-14
    8.8038978139E-14    8.3610677394E-14    7.9405846014E-14    7.5413170921E-14
    7.1621913525E-14    6.8021880455E-14    6.4603395806E-14    6.1357274780E-14
    5.8274798697E-14    5.5347691262E-14    5.2568096056E-14    4.9928555170E-14
    4.7421988930E-14    4.5041676656E-14    4.2781238405E-14    4.0634617643E-14
    3.8596064804E-14    3.6660121677E-14    3.4821606607E-14    3.3075600433E-14
    3.1417433150E-14    2.9842671256E-14    2.8347105733E-14    2.6926740645E-14
    2.5577782324E-14    2.4296629092E-14    2.3079861520E-14    2.1924233174E-14
    2.0826661841E-14    1.9784221189E-14    1.8794132865E-14    1.7853758982E-14
    1.6960595004E-14    1.6112262974E-14    1.5306505106E-14    1.4541177685E-14
    1.3814245289E-14    1.3123775303E-14    1.2467932707E-14    1.1844975131E-14
    1.1253248168E-14    1.0691180911E-14    1.0157281731E-14    9.6501342622E-15
    9.1683935915E-15    8.7107826417E-15    8.2760887408E-15    7.8631603616E-15
    7.4709040305E-15    7.0982813894E-15    6.7443064108E-15    6.4080427499E-15
    6.0886012347E-15    5.7851374806E-15    5.4968496282E-15    5.2229761934E-15
    4.9627940292E-15    4.7156163880E-15    4.4807910845E-15    4.2576987496E-15
    4.0457511746E-15    3.8443897382E-15    3.6530839127E-15    3.4713298475E-15
    3.2986490224E-15    3.1345869704E-15    2.9787120644E-15    2.8306143659E-15
    2.6899045312E-15    2.5562127737E-15    2.4291878776E-15    2.3084962631E-15
    2.1938210971E-15    2.0848614502E-15    1.9813314952E-15    1.8829597473E-15
    1.7894883415E-15    1.7006723474E-15    1.6162791179E-15    1.5360876714E-15
    1.4598881048E-15    1.3874810363E-15    1.3186770761E-15    1.2532963242E-15
    1.1911678930E-15    1.1321294547E-15    1.0760268108E-15    1.0227134835E-15
    9.7205032825E-16    9.2390516504E-16    8.7815242874E-16    8.3467283700E-16
    7.9335307469E-16    7.5408549455E-16    7.1676783255E-16    6.8130293797E-16
    6.4759851668E-16    6.1556688769E-16    5.8512475168E-16    5.5619297138E-16
    5.2869636286E-16    5.0256349736E-16    4.7772651317E-16    4.5412093681E-16
    4.3168551336E-16    4.1036204515E-16    3.9009523882E-16    3.7083255967E-16
    3.5252409377E-16    3.3512241664E-16    3.1858246872E-16    3.0286143706E-16
    2.8791864286E-16    2.7371543482E-16    2.6021508764E-16    2.4738270583E-16
    2.3518513212E-16    2.2359086069E-16    2.1256995458E-16    2.0209396728E-16
    1.9213586835E-16    1.8266997262E-16    1.7367187307E-16    1.6511837695E-16
    1.5698744522E-16    1.4925813492E-16    1.4191054452E-16    1.3492576192E-16
    1.2828581512E-16    1.2197362531E-16    1.1597296234E-16    1.1026840242E-16
    1.0484528790E-16    9.9689689096E-17    9.4788368023E-17    9.0128743913E-17
    8.5698860506E-17    8.1487354906E-17    7.7483428080E-17    7.3676816745E-17
    7.0057766723E-17    6.6617007599E-17    6.3345728636E-17    6.0235555928E-17
    5.7278530643E-17    5.4467088408E-17    5.1794039672E-17    4.9252551083E-17
    4.6836127779E-17    4.4538596561E-17    4.2354089922E-17    4.0277030842E-17
    3.8302118375E-17    3.6424313928E-17    3.4638828236E-17    3.2941108991E-17
    3.1326829062E-17    2.9791875342E-17    2.8332338113E-17    2.6944500958E-17
    2.5624831178E-17    2.4369970672E-17    2.3176727292E-17    2.2042066600E-17
    2.0963104062E-17    1.9937097617E-17    1.8961440611E-17    1.8033655099E-17
    1.7151385455E-17    1.6312392333E-17    1.5514546890E-17    1.4755825329E-17
    1.4034303693E-17    1.3348152924E-17    1.2695634169E-17    1.2075094317E-17
    1.1484961755E-17    1.0923742342E-17    1.0390015572E-17    9.8824309413E-18
    9.3997044790E-18    8.9406154665E-18    8.5040033081E-18    8.0887645600E-18
    7.6938501106E-18    7.3182624921E-18    6.9610533350E-18    6.6213209408E-18
    6.2982079784E-18    5.9908992968E-18    5.6986198396E-18    5.4206326705E-18
    5.1562370903E-18    4.9047668499E-18    4.6655884532E-18    4.4380995389E-18
    4.2217273489E-18    4.0159272672E-18    3.8201814325E-18    3.6339974223E-18
    3.4569069966E-18    3.2884649092E-18    3.1282477738E-18    2.9758529876E-18
    2.8308977093E-18    2.6930178844E-18    2.5618673221E-18    2.4371168157E-18
    2.3184533062E-18    2.2055790896E-18    2.0982110598E-18    1.9960799919E-18
    1.8989298592E-18    1.8065171839E-18    1.7186104216E-18    1.6349893733E-18
    1.5554446285E-18    1.4797770355E-18    1.4077971966E-18    1.3393249900E-18
    1.2741891133E-18    1.2122266510E-18    1.1532826629E-18    1.0972097919E-18
    1.0438678928E-18    9.9312367756E-19    9.4485037910E-19    8.9892743186E-19
    8.5524016692E-19    8.1367952322E-19    7.7414177266E-19    7.3652825815E-19
    7.0074514571E-19    6.6670318757E-19    6.3431749746E-19    6.0350733731E-19
    5.7419591344E-19    5.4631018383E-19    5.1978067420E-19    4.9454130308E-19
    4.7052921620E-19    4.4768462801E-19    4.2595067167E-19    4.0527325632E-19
    3.8560093096E-19    3.6688475556E-19    3.4907817812E-19    3.3213691768E-19
    3.1601885366E-19    3.0068391981E-19    2.8609400398E-19    2.7221285260E-19
    2.5900597968E-19    2.4644058060E-19    2.3448544988E-19    2.2311090292E-19
    2.1228870197E-19    2.0199198520E-19    1.9219519961E-19    1.8287403716E-19
    1.7400537387E-19    1.6556721209E-19    1.5753862554E-19    1.4989970687E-19
    1.4263151817E-19    1.3571604346E-19    1.2913614378E-19    1.2287551447E-19
    1.1691864435E-19    1.1125077713E-19    1.0585787456E-19    1.0072658137E-19
    9.5844192065E-20    9.1198619189E-20    8.6778363173E-20    8.2572483791E-20
    7.8570572800E-20    7.4762728042E-20    7.1139528848E-20    6.7692012501E-20
    6.4411651977E-20    6.1290334735E-20    5.8320342487E-20    5.5494332051E-20
    5.2805317073E-20    5.0246650620E-20    4.7812008732E-20    4.5495374643E-20
    4.3291023838E-20    4.1193509878E-20    3.9197650817E-20    3.7298516354E-20
    3.5491415617E-20    3.3771885475E-20    3.2135679489E-20    3.0578757382E-20
    2.9097274981E-20    2.7687574721E-20    2.6346176554E-20    2.5069769311E-20
    2.3855202521E-20    2.2699478582E-20    2.1599745324E-20    2.0553288976E-20
    1.9557527408E-20    1.8610003746E-20    1.7708380304E-20    1.6850432770E-20
    1.6034044712E-20    1.5257202347E-20    1.4517989537E-20    1.3814583064E-20
    1.3145248116E-20    1.2508333985E-20    1.1902269999E-20    1.1325561631E-20
    1.0776786793E-20    1.0254592343E-20    9.7576907194E-21    9.2848567637E-21
    8.8349247026E-21    8.4067852558E-21    7.9993828949E-21    7.6117132485E-21
    7.2428206078E-21    6.8917955692E-21    6.5577727966E-21    6.2399288747E-21
    5.9374802786E-21    5.6496814460E-21    5.3758229276E-21    5.1152296406E-21
    4.8672592056E-21    4.6313003549E-21    4.4067714285E-21    4.1931189402E-21
    3.9898162078E-21    3.7963620572E-21    3.6122795873E-21    3.4371149894E-21
    3.2704364324E-21    3.1118329973E-21    2.9609136610E-21    2.8173063362E-21
    2.6806569526E-21    2.5506285823E-21    2.4269006125E-21    2.3091679540E-21
    2.1971402875E-21    2.0905413511E-21    1.9891082585E-21    1.8925908492E-21
    1.8007510757E-21    1.7133624147E-21    1.6302093086E-21    1.5510866364E-21
    1.4757992076E-21    1.4041612798E-21    1.3359961038E-21    1.2711354869E-21
    1.2094193779E-21    1.1506954746E-21    1.0948188477E-21    1.0416515834E-21
    9.9106244517E-22    9.4292654955E-22    8.9712505819E-22    8.5354488656E-22
    8.1207842472E-22    7.7262327166E-22    7.3508198445E-22    6.9936183770E-22
    6.6537459460E-22    6.3303629070E-22    6.0226702677E-22    5.7299077146E-22
    5.4513517490E-22    5.1863139037E-22    4.9341390413E-22    4.6942037480E-22
    4.4659147979E-22    4.2487076861E-22    4.0420452438E-22    3.8454163166E-22
    3.6583344991E-22    3.4803369418E-22    3.3109832126E-22    3.1498542065E-22
    2.9965511161E-22    2.8506944521E-22    2.7119231034E-22    2.5798934486E-22
    2.4542785143E-22    2.3347671630E-22    2.2210633285E-22    2.1128852901E-22
    2.0099649738E-22    1.9120472915E-22    1.8188895175E-22    1.7302606852E-22
    1.6459410182E-22    1.5657213920E-22    1.4894028156E-22    1.4167959400E-22
    1.3477205950E-22    1.2820053422E-22    1.2194870517E-22    1.1600105021E-22
    1.1034279966E-22    1.0495989976E-22    9.9838978126E-23    9.4967310800E-23
    9.0332790684E-23    8.5923897754E-23    8.1729670737E-23    7.7739679867E-23
    7.3944001180E-23    7.0333192186E-23    6.6898268352E-23    6.3630680921E-23
    6.0522295999E-23    5.7565374270E-23    5.4752551885E-23    5.2076822405E-23
    4.9531519389E-23    4.7110299882E-23    4.4807128835E-23    4.2616264158E-23
    4.0532242460E-23    3.8549865596E-23    3.6664187845E-23    3.4870503596E-23
    3.3164335722E-23    3.1541424591E-23    2.9997717424E-23    2.8529358266E-23
    2.7132678538E-23    2.5804187866E-23    2.4540565435E-23    2.3338651829E-23
    2.2195441165E-23    2.1108073625E-23    2.0073828407E-23    1.9090116984E-23
    1.8154476651E-23    1.7264564434E-23    1.6418151314E-23    1.5613116656E-23
    1.4847442941E-23    1.4119210820E-23    1.3426594296E-23    1.2767856194E-23
    1.2141343881E-23    1.1545485144E-23    1.0978784271E-23    1.0439818354E-23
    9.9272337592E-24    9.4397427435E-24    8.9761202514E-24    8.5352009030E-24
    8.1158760614E-24    7.7170910766E-24    7.3378426876E-24    6.9771765061E-24
    6.6341846364E-24    6.3080034278E-24    5.9978113258E-24    5.7028268120E-24
    5.4223064600E-24    5.1555431007E-24    4.9018640388E-24    4.6606293767E-24
    4.4312304364E-24    4.2130882265E-24    4.0056519963E-24    3.8083978691E-24
    3.6208275356E-24    3.4424670010E-24    3.2728654026E-24    3.1115938959E-24
    2.9582445689E-24    2.8124294236E-24    2.6737794165E-24    2.5419435277E-24
    2.4165878813E-24    2.2973949138E-24    2.1840625822E-24    2.0763036015E-24
    1.9738447247E-24    1.8764260684E-24    1.7838004521E-24    1.6957327792E-24
    1.6119994530E-24    1.5323878135E-24    1.4566956019E-24    1.3847304538E-24
    1.3163094212E-24    1.2512585075E-24    1.1894122307E-24    1.1306132127E-24
    1.0747117802E-24    1.0215655878E-24    9.7103926152E-25    9.2300406045E-25
    8.7733754931E-25    8.3392329028E-25    7.9265055457E-25    7.5341403927E-25
    7.1611360240E-25    6.8065401247E-25    6.4694470844E-25    6.1489956977E-25
    5.8443669911E-25    5.5547821904E-25    5.2795007218E-25    5.0178183465E-25
    4.7690653982E-25    4.5326050872E-25    4.3078318814E-25    4.0941699770E-25
    3.8910718639E-25    3.6980169183E-25    3.5145100874E-25    3.3400806502E-25
    3.1742810199E-25    3.0166856048E-25    2.8668897308E-25    2.7245086315E-25
    2.5891764556E-25    2.4605453415E-25    2.3382845444E-25    2.2220795930E-25
    2.1116314871E-25    2.0066559384E-25    1.9068826608E-25    1.8120546703E-25
    1.7219276340E-25    1.6362692549E-25    1.5548586794E-25    1.4774859318E-25
    1.4039513793E-25    1.3340652337E-25    1.2676470578E-25    1.2045253080E-25
    1.1445368996E-25    1.0875267923E-25    1.0333475909E-25    9.8185916846E-26
    9.3292831649E-26    8.8642839795E-26    8.4223902463E-26    8.0024575128E-26
    7.6033978514E-26    7.2241770411E-26    6.8638119229E-26    6.5213679280E-26
    6.1959566548E-26    5.8867335912E-26    5.5928959551E-26    5.3136806695E-26
    5.0483623700E-26    4.7962515493E-26    4.5566928105E-26    4.3290631793E-26
    4.1127704942E-26    3.9072518827E-26    3.7119723502E-26    3.5264233733E-26
    3.3501215981E-26    3.1826076038E-26    3.0234447318E-26    2.8722179446E-26
    2.7285327588E-26    2.5920142462E-26    2.4623060586E-26    2.3390695061E-26
    2.2219826830E-26    2.1107396570E-26    2.0050496611E-26    1.9046363463E-26
    1.8092370738E-26    1.7186022412E-26    1.6324946282E-26    1.5506887841E-26
    1.4729704562E-26    1.3991360286E-26    1.3289919941E-26    1.2623544529E-26
    1.1990486480E-26    1.1389085015E-26    1.0817761856E-26    1.0275017174E-26
    9.7594257276E-27    9.2696331095E-27    8.8043522354E-27    8.3623600650E-27
    7.9424943967E-27    7.5436508345E-27    7.1647799097E-27    6.8048844323E-27
    6.4630168269E-27    6.1382766815E-27    5.8298084110E-27    5.5367990694E-27
    5.2584761850E-27    4.9941057561E-27    4.7429903633E-27    4.5044673528E-27
    4.2779070881E-27    4.0627113067E-27    3.8583115952E-27    3.6641678826E-27
    3.4797670275E-27    3.3046214726E-27    3.1382680122E-27    2.9802665422E-27
    2.8301989187E-27    2.6876678662E-27    2.5522959589E-27    2.4237246078E-27
    2.3016131264E-27    2.1856378487E-27    2.0754912851E-27    1.9708813039E-27
    1.8715303659E-27    1.7771748119E-27    1.6875641637E-27    1.6024604629E-27
    1.5216376438E-27    1.4448809582E-27    1.3719863965E-27    1.3027601535E-27
    1.2370181165E-27    1.1745853976E-27    1.1152958577E-27    1.0589916728E-27
    1.0055229194E-27    9.5474718879E-28    9.0652920081E-28    8.6074044983E-28
    8.1725886916E-28    7.7596851249E-28    7.3675924168E-28    6.9952643689E-28
    6.6417072531E-28    6.3059771834E-28    5.9871775885E-28    5.6844568430E-28
    5.3970060723E-28    5.1240569854E-28    4.8648798307E-28    4.6187814591E-28
    4.3851035480E-28    4.1632208158E-28    3.9525393680E-28    3.7524951140E-28
    3.5625523305E-28    3.3822021907E-28    3.2109614260E-28    3.0483710347E-28
    2.8939951150E-28    2.7474196589E-28    2.6082514659E-28    2.4761170954E-28
    2.3506619088E-28    2.2315490908E-28    2.1184587630E-28    2.0110871343E-28
    1.9091457158E-28    1.8123605259E-28    1.7204713678E-28    1.6332311403E-28
    1.5504051939E-28    1.4717706867E-28    1.3971159942E-28    1.3262401502E-28
    1.2589523206E-28    1.1950712792E-28    1.1344249275E-28    1.0768498404E-28
    1.0221908361E-28    9.7030055017E-29    9.2103904428E-29    8.7427343740E-29
    8.2987755416E-29    7.8773157913E-29    7.4772173779E-29    7.0973999697E-29
    6.7368377801E-29    6.3945567562E-29    6.0696319810E-29    5.7611852383E-29
    5.4683826756E-29    5.1904325166E-29    4.9265829471E-29    4.6761201337E-29
    4.4383663228E-29    4.2126779778E-29    3.9984440594E-29    3.7950844127E-29
    3.6020482230E-29    3.4188124975E-29    3.2448806679E-29    3.0797812755E-29
    2.9230667193E-29    2.7743120176E-29    2.6331136724E-29    2.4990885978E-29
    2.3718731055E-29    2.2511218946E-29    2.1365071294E-29    2.0277175644E-29
    1.9244577245E-29    1.8264470803E-29    1.7334192987E-29    1.6451215287E-29
    1.5613137400E-29    1.4817680486E-29    1.4062681089E-29    1.3346085297E-29
    1.2665943420E-29    1.2020404464E-29    1.1407711210E-29    1.0826195434E-29
    1.0274273622E-29    9.7504424555E-30    9.2532748181E-30    8.7814158803E-30
    8.3335796645E-30    7.9085453436E-30    7.5051540025E-30    7.1223054575E-30
    6.7589554464E-30    6.4141126535E-30    6.0868360535E-30    5.7762323352E-30
    5.4814535980E-30    5.2016949690E-30    4.9361924201E-30    4.6842206839E-30
    4.4450913617E-30    4.2181510206E-30    4.0027793969E-30    3.7983877119E-30
    3.6044171151E-30    3.4203371695E-30    3.2456443708E-30    3.0798607879E-30
    2.9225327798E-30    2.7732297934E-30    2.6315431422E-30    2.4970849093E-30
    2.3694868889E-30    2.2483996348E-30    2.1334914521E-30    2.0244475128E-30
    1.9209689833E-30    1.8227722691E-30    1.7295881869E-30    1.6411612466E-30
    1.5572489451E-30    1.4776211422E-30    1.4020594067E-30    1.3303564200E-30
    1.2623154086E-30    1.1977496263E-30    1.1364818400E-30    1.0783438346E-30
    1.0231759562E-30    9.7082668275E-31    9.2115222077E-31    8.7401609432E-31
    8.2928877780E-31    7.8684733893E-31    7.4657512423E-31    7.0836141718E-31
    6.7210114258E-31    6.3769457416E-31    6.0504708061E-31    5.7406885083E-31
    5.4467465068E-31    5.1678358766E-31    4.9031889904E-31    4.6520773811E-31
    4.4138097059E-31    4.1877298612E-31    3.9732152105E-31    3.7696749319E-31
    3.5765483123E-31    3.3933032397E-31    3.2194347194E-31    3.0544636012E-31
    2.8979351528E-31    2.7494178463E-31    2.6085021543E-31    2.4747994958E-31
    2.3479411220E-31    2.2275771000E-31    2.1133753502E-31    2.0050207590E-31
    1.9022143252E-31    1.8046723027E-31    1.7121254326E-31    1.6243181957E-31
    1.5410081625E-31    1.4619652707E-31    1.3869712099E-31    1.3158188101E-31
    1.2483115114E-31    1.1842627950E-31    1.1234956688E-31    1.0658421800E-31
    1.0111429647E-31    9.5924681742E-32    9.1001025392E-32    8.6329712384E-32
    8.1897822876E-32    7.7693099827E-32    7.3703911982E-32    6.9919222805E-32
    6.6328559525E-32    6.2921986071E-32    5.9690074665E-32    5.6623879455E-32
    5.3714911952E-32    5.0955117890E-32    4.8336856030E-32    4.5852875602E-32
    4.3496296807E-32    4.1282711901E-32    3.9177634522E-32    3.7164512888E-32
    3.5235415544E-32    3.3300909457E-32    3.1393701242E-32    2.9692762661E-32
    2.8248799890E-32    2.7085525211E-32    2.6634202182E-32    2.5980946405E-32
    2.4740468493E-32    2.2594940370E-32    1.8756989264E-32    1.3677662851E-32
    8.3541692159E-33    3.4346280640E-33   -3.2367736695E-34   -1.7983577366E-33
   -2.0520012989E-33   -1.4300708550E-33   -3.6703988062E-34    2.5042693269E-34
    4.4683260347E-34    4.2128865914E-34    2.2313936904E-34   -8.6951527530E-36
   -4.3529802703E-35   -5.4430225239E-35   -4.1017702800E-35   -1.0776575501E-35
    0.0000000000E+00    0.0000000000E+00    0.0000000000E+00    0.0000000000E+00
    0.0000000000E+00    0.0000000000E+00    0.0000000000E+00    0.0000000000E+00
    0.0000000000E+00    0.0000000000E+00    0.0000000000E+00    0.0000000000E+00
    0.0000000000E+00    0.0000000000E+00    0.0000000000E+00    0.0000000000E+00
    0.0000000000E+00    0.0000000000E+00    0.0000000000E+00    0.0000000000E+00
    0.0000000000E+00    0.0000000000E+00    0.0000000000E+00    0.0000000000E+00
    0.0000000000E+00    0.0000000000E+00    0.0000000000E+00    0.0000000000E+00
    0.0000000000E+00    0.0000000000E+00    0.0000000000E+00    0.0000000000E+00
    0.0000000000E+00    0.0000000000E+00    0.0000000000E+00    0.0000000000E+00
    0.0000000000E+00    0.0000000000E+00    0.0000000000E+00    0.0000000000E+00
    0.0000000000E+00    0.0000000000E+00    0.0000000000E+00    0.0000000000E+00
    0.0000000000E+00    0.0000000000E+00    0.0000000000E+00    0.0000000000E+00
    0.0000000000E+00    0.0000000000E+00    0.0000000000E+00    0.0000000000E+00
    0.0000000000E+00    0.0000000000E+00    0.0000000000E+00    0.0000000000E+00
    0.0000000000E+00    0.0000000000E+00    0.0000000000E+00    0.0000000000E+00
    0.0000000000E+00    0.0000000000E+00    0.0000000000E+00    0.0000000000E+00
    0.0000000000E+00    0.0000000000E+00    0.0000000000E+00    0.0000000000E+00
    0.0000000000E+00    0.0000000000E+00    0.0000000000E+00    0.0000000000E+00
    0.0000000000E+00    0.0000000000E+00    0.0000000000E+00    0.0000000000E+00
    0.0000000000E+00    0.0000000000E+00    0.0000000000E+00    0.0000000000E+00
    0.0000000000E+00    0.0000000000E+00    0.0000000000E+00    0.0000000000E+00
    0.0000000000E+00    0.0000000000E+00    0.0000000000E+00    0.0000000000E+00
    0.0000000000E+00    0.0000000000E+00    0.0000000000E+00    0.0000000000E+00
    0.0000000000E+00    0.0000000000E+00    0.0000000000E+00    0.0000000000E+00
    0.0000000000E+00    0.0000000000E+00    0.0000000000E+00    0.0000000000E+00
    0.0000000000E+00    0.0000000000E+00    0.0000000000E+00    0.0000000000E+00
    0.0000000000E+00    0.0000000000E+00    0.0000000000E+00    0.0000000000E+00
    0.0000000000E+00    0.0000000000E+00    0.0000000000E+00    0.0000000000E+00
    0.0000000000E+00    0.0000000000E+00    0.0000000000E+00    0.0000000000E+00
    0.0000000000E+00    0.0000000000E+00    0.0000000000E+00    0.0000000000E+00
    0.0000000000E+00    0.0000000000E+00    0.0000000000E+00    0.0000000000E+00
    0.0000000000E+00    0.0000000000E+00    0.0000000000E+00    0.0000000000E+00
    0.0000000000E+00    0.0000000000E+00    0.0000000000E+00    0.0000000000E+00
    0.0000000000E+00    0.0000000000E+00    0.0000000000E+00    0.0000000000E+00
    0.0000000000E+00    0.0000000000E+00    0.0000000000E+00    0.0000000000E+00
    0.0000000000E+00    0.0000000000E+00    0.0000000000E+00    0.0000000000E+00
    0.0000000000E+00    0.0000000000E+00    0.0000000000E+00    0.0000000000E+00
    0.0000000000E+00    0.0000000000E+00    0.0000000000E+00    0.0000000000E+00
    0.0000000000E+00    0.0000000000E+00    0.0000000000E+00    0.0000000000E+00
    0.0000000000E+00    0.0000000000E+00    0.0000000000E+00    0.0000000000E+00
    0.0000000000E+00    0.0000000000E+00    0.0000000000E+00    0.0000000000E+00
    0.0000000000E+00    0.0000000000E+00    0.0000000000E+00    0.0000000000E+00
    0.0000000000E+00    0.0000000000E+00    0.0000000000E+00    0.0000000000E+00
    0.0000000000E+00    0.0000000000E+00    0.0000000000E+00    0.0000000000E+00
    0.0000000000E+00    0.0000000000E+00    0.0000000000E+00    0.0000000000E+00
    0.0000000000E+00    0.0000000000E+00    0.0000000000E+00    0.0000000000E+00
    0.0000000000E+00    0.0000000000E+00    0.0000000000E+00    0.0000000000E+00
    0.0000000000E+00    0.0000000000E+00    0.0000000000E+00    0.0000000000E+00
    0.0000000000E+00    0.0000000000E+00    0.0000000000E+00    0.0000000000E+00
    0.0000000000E+00    0.0000000000E+00    0.0000000000E+00    0.0000000000E+00
    0.0000000000E+00    0.0000000000E+00    0.0000000000E+00    0.0000000000E+00
    0.0000000000E+00    0.0000000000E+00    0.0000000000E+00    0.0000000000E+00
    0.0000000000E+00    0.0000000000E+00    0.0000000000E+00    0.0000000000E+00
    0.0000000000E+00    0.0000000000E+00    0.0000000000E+00    0.0000000000E+00
    0.0000000000E+00    0.0000000000E+00    0.0000000000E+00    0.0000000000E+00
    0.0000000000E+00    0.0000000000E+00    0.0000000000E+00    0.0000000000E+00
    0.0000000000E+00    0.0000000000E+00    0.0000000000E+00    0.0000000000E+00
    0.0000000000E+00    0.0000000000E+00    0.0000000000E+00    0.0000000000E+00
    0.0000000000E+00    0.0000000000E+00    0.0000000000E+00    0.0000000000E+00
    0.0000000000E+00    0.0000000000E+00    0.0000000000E+00    0.0000000000E+00
    0.0000000000E+00    0.0000000000E+00    0.0000000000E+00    0.0000000000E+00
    0.0000000000E+00    0.0000000000E+00    0.0000000000E+00    0.0000000000E+00
    0.0000000000E+00    0.0000000000E+00    0.0000000000E+00    0.0000000000E+00
    0.0000000000E+00    0.0000000000E+00    0.0000000000E+00    0.0000000000E+00
    0.0000000000E+00    0.0000000000E+00    0.0000000000E+00    0.0000000000E+00
    0.0000000000E+00    0.0000000000E+00    0.0000000000E+00    0.0000000000E+00
    0.0000000000E+00    0.0000000000E+00    0.0000000000E+00    0.0000000000E+00
    0.0000000000E+00    0.0000000000E+00    0.0000000000E+00    0.0000000000E+00
    0.0000000000E+00    0.0000000000E+00    0.0000000000E+00    0.0000000000E+00
    0.0000000000E+00    0.0000000000E+00    0.0000000000E+00    0.0000000000E+00
    0.0000000000E+00    0.0000000000E+00    0.0000000000E+00    0.0000000000E+00
    0.0000000000E+00    0.0000000000E+00    0.0000000000E+00    0.0000000000E+00
    0.0000000000E+00    0.0000000000E+00    0.0000000000E+00    0.0000000000E+00
    0.0000000000E+00    0.0000000000E+00    0.0000000000E+00    0.0000000000E+00
    0.0000000000E+00    0.0000000000E+00    0.0000000000E+00    0.0000000000E+00
    0.0000000000E+00    0.0000000000E+00    0.0000000000E+00    0.0000000000E+00
    0.0000000000E+00    0.0000000000E+00    0.0000000000E+00    0.0000000000E+00
    0.0000000000E+00    0.0000000000E+00    0.0000000000E+00    0.0000000000E+00
    0.0000000000E+00    0.0000000000E+00    0.0000000000E+00    0.0000000000E+00
    0.0000000000E+00    0.0000000000E+00    0.0000000000E+00    0.0000000000E+00
    0.0000000000E+00    0.0000000000E+00    0.0000000000E+00    0.0000000000E+00
    0.0000000000E+00    0.0000000000E+00    0.0000000000E+00    0.0000000000E+00
    0.0000000000E+00    0.0000000000E+00    0.0000000000E+00    0.0000000000E+00
    0.0000000000E+00    0.0000000000E+00    0.0000000000E+00    0.0000000000E+00
    0.0000000000E+00    0.0000000000E+00    0.0000000000E+00    0.0000000000E+00
    0.0000000000E+00    0.0000000000E+00    0.0000000000E+00    0.0000000000E+00
    0.0000000000E+00    0.0000000000E+00    0.0000000000E+00    0.0000000000E+00
    0.0000000000E+00    0.0000000000E+00    0.0000000000E+00    0.0000000000E+00
    0.0000000000E+00    0.0000000000E+00    0.0000000000E+00    0.0000000000E+00
    0.0000000000E+00    0.0000000000E+00    0.0000000000E+00    0.0000000000E+00
    0.0000000000E+00    0.0000000000E+00    0.0000000000E+00    0.0000000000E+00
    0.0000000000E+00    0.0000000000E+00    0.0000000000E+00    0.0000000000E+00
    0.0000000000E+00    0.0000000000E+00    0.0000000000E+00    0.0000000000E+00
    0.0000000000E+00    0.0000000000E+00    0.0000000000E+00    0.0000000000E+00
    0.0000000000E+00    0.0000000000E+00    0.0000000000E+00    0.0000000000E+00
    0.0000000000E+00    0.0000000000E+00    0.0000000000E+00    0.0000000000E+00
    0.0000000000E+00    0.0000000000E+00    0.0000000000E+00    0.0000000000E+00
    0.0000000000E+00    0.0000000000E+00    0.0000000000E+00    0.0000000000E+00
    0.0000000000E+00    0.0000000000E+00    0.0000000000E+00    0.0000000000E+00
    0.0000000000E+00    0.0000000000E+00    0.0000000000E+00    0.0000000000E+00
    0.0000000000E+00    0.0000000000E+00    0.0000000000E+00    0.0000000000E+00
    0.0000000000E+00    0.0000000000E+00    0.0000000000E+00    0.0000000000E+00
    0.0000000000E+00    0.0000000000E+00    0.0000000000E+00    0.0000000000E+00
    0.0000000000E+00    0.0000000000E+00    0.0000000000E+00    0.0000000000E+00
    0.0000000000E+00    0.0000000000E+00    0.0000000000E+00    0.0000000000E+00
    0.0000000000E+00    0.0000000000E+00    0.0000000000E+00    0.0000000000E+00
    0.0000000000E+00    0.0000000000E+00    0.0000000000E+00    0.0000000000E+00
    0.0000000000E+00    0.0000000000E+00    0.0000000000E+00    0.0000000000E+00
    0.0000000000E+00    0.0000000000E+00    0.0000000000E+00    0.0000000000E+00
 </PP_NLCC>
 <PP_RHOATOM type="real"  size="1940" columns="4">
    0.0000000000E+00    5.1125393995E-08    2.1861601493E-07    5.4638221405E-07
    1.1128292298E-06    2.0386816460E-06    3.4979223319E-06    5.7318299583E-06
    9.0660937919E-06    1.3930978446E-05    2.0884504513E-05    3.0638603365E-05
    4.4088195874E-05    6.2343135146E-05    8.6762942685E-05    1.1899425549E-04
    1.6101088853E-04    2.1515640273E-04    2.8418905317E-04    3.7132897531E-04
    4.8030744963E-04    6.1541806578E-04    7.8156958773E-04    9.8434030079E-04
    1.2300335998E-03    1.5257345559E-03    1.8793671772E-03    2.2997520563E-03
    2.7966640740E-03    3.3808898096E-03    4.0642842827E-03    4.8598266338E-03
    5.7816743304E-03    6.8452154681E-03    8.0671187181E-03    9.4653804598E-03
    1.1059368625E-02    1.2869862770E-02    1.4919089889E-02    1.7230755466E-02
    1.9830069288E-02    2.2743765517E-02    2.6000116538E-02    2.9628940129E-02
    3.3661599473E-02    3.8130995603E-02    4.3071551841E-02    4.8519189873E-02
    5.4511297098E-02    6.1086684932E-02    6.8285537805E-02    7.6149352621E-02
    8.4720868493E-02    9.4043986648E-02    1.0416368040E-01    1.1512589521E-01
    1.2697743886E-01    1.3976586187E-01    1.5353932831E-01    1.6834647731E-01
    1.8423627546E-01    2.0125786065E-01    2.1946037765E-01    2.3889280595E-01
    2.5960378063E-01    2.8164140656E-01    3.0505306698E-01    3.2988522702E-01
    3.5618323296E-01    3.8399110827E-01    4.1335134711E-01    4.4430470644E-01
    4.7688999763E-01    5.1114387857E-01    5.4710064741E-01    5.8479203888E-01
    6.2424702439E-01    6.6549161687E-01    7.0854868144E-01    7.5343775309E-01
    8.0017486226E-01    8.4877236941E-01    8.9923880967E-01    9.5157874830E-01
    1.0057926481E+00    1.0618767497E+00    1.1198229648E+00    1.1796187846E+00
    1.2412472023E+00    1.3046866516E+00    1.3699109617E+00    1.4368893278E+00
    1.5055862992E+00    1.5759617850E+00    1.6479710763E+00    1.7215648863E+00
    1.7966894081E+00    1.8732863895E+00    1.9512932257E+00    2.0306430681E+00
    2.1112649506E+00    2.1930839316E+00    2.2760212519E+00    2.3599945074E+00
    2.4449178366E+00    2.5307021215E+00    2.6172552012E+00    2.7044820977E+00
    2.7922852524E+00    2.8805647726E+00    2.9692186872E+00    3.0581432097E+00
    3.1472330085E+00    3.2363814819E+00    3.3254810385E+00    3.4144233798E+00
    3.5030997854E+00    3.5914013985E+00    3.6792195117E+00    3.7664458502E+00
    3.8529728529E+00    3.9386939497E+00    4.0235038334E+00    4.1072987259E+00
    4.1899766370E+00    4.2714376156E+00    4.3515839916E+00    4.4303206082E+00
    4.5075550434E+00    4.5831978205E+00    4.6571626060E+00    4.7293663875E+00
    4.7997296320E+00    4.8681764467E+00    4.9346347283E+00    4.9990362958E+00
    5.0613170072E+00    5.1214168603E+00    5.1792800784E+00    5.2348551812E+00
    5.2880950405E+00    5.3389569226E+00    5.3874025158E+00    5.4333979450E+00
    5.4769137720E+00    5.5179249835E+00    5.5564109660E+00    5.5923554682E+00
    5.6257465511E+00    5.6565765273E+00    5.6848418895E+00    5.7105432284E+00
    5.7336851419E+00    5.7542761345E+00    5.7723285099E+00    5.7878582553E+00
    5.8008849194E+00    5.8114314845E+00    5.8195242337E+00    5.8251926129E+00
    5.8284690900E+00    5.8293890105E+00    5.8279904510E+00    5.8243140703E+00
    5.8184029606E+00    5.8103024973E+00    5.8000601893E+00    5.7877255298E+00
    5.7733498484E+00    5.7569861648E+00    5.7386890447E+00    5.7185144582E+00
    5.6965196409E+00    5.6727629589E+00    5.6473037766E+00    5.6202023291E+00
    5.5915195980E+00    5.5613171923E+00    5.5296572332E+00    5.4966022442E+00
    5.4622150448E+00    5.4265586437E+00    5.3896959900E+00    5.3516895783E+00
    5.3126013219E+00    5.2724924869E+00    5.2314236316E+00    5.1894545488E+00
    5.1466442126E+00    5.1030507282E+00    5.0587312855E+00    5.0137421147E+00
    4.9681384470E+00    4.9219744760E+00    4.8753033240E+00    4.8281770061E+00
    4.7806462463E+00    4.7327568349E+00    4.6845487396E+00    4.6360611361E+00
    4.5873318227E+00    4.5383974026E+00    4.4892932820E+00    4.4400536815E+00
    4.3907116502E+00    4.3412990802E+00    4.2918467220E+00    4.2423842016E+00
    4.1929400375E+00    4.1435416581E+00    4.0942154216E+00    4.0449866339E+00
    3.9958795687E+00    3.9469174878E+00    3.8981226609E+00    3.8495163868E+00
    3.8011190142E+00    3.7529499625E+00    3.7050277437E+00    3.6573699834E+00
    3.6099934422E+00    3.5629140375E+00    3.5161468647E+00    3.4697062190E+00
    3.4236056164E+00    3.3778578150E+00    3.3324748366E+00    3.2874679873E+00
    3.2428478781E+00    3.1986244464E+00    3.1548069754E+00    3.1114041149E+00
    3.0684239012E+00    3.0258737766E+00    2.9837606088E+00    2.9420907102E+00
    2.9008698565E+00    2.8601033052E+00    2.8197958141E+00    2.7799516587E+00
    2.7405746502E+00    2.7016681522E+00    2.6632350974E+00    2.6252780054E+00
    2.5877989973E+00    2.5507998123E+00    2.5142818226E+00    2.4782460490E+00
    2.4426931750E+00    2.4076235618E+00    2.3730372616E+00    2.3389340317E+00
    2.3053133473E+00    2.2721744148E+00    2.2395161838E+00    2.2073373596E+00
    2.1756364149E+00    2.1444116009E+00    2.1136609589E+00    2.0833823304E+00
    2.0535733678E+00    2.0242315443E+00    1.9953541634E+00    1.9669383684E+00
    1.9389811513E+00    1.9114793612E+00    1.8844297131E+00    1.8578287952E+00
    1.8316730773E+00    1.8059589174E+00    1.7806825695E+00    1.7558401897E+00
    1.7314278431E+00    1.7074415099E+00    1.6838770911E+00    1.6607304144E+00
    1.6379972396E+00    1.6156732637E+00    1.5937541258E+00    1.5722354118E+00
    1.5511126590E+00    1.5303813606E+00    1.5100369693E+00    1.4900749019E+00
    1.4704905428E+00    1.4512792475E+00    1.4324363466E+00    1.4139571489E+00
    1.3958369446E+00    1.3780710088E+00    1.3606546042E+00    1.3435829844E+00
    1.3268513962E+00    1.3104550824E+00    1.2943892846E+00    1.2786492450E+00
    1.2632302089E+00    1.2481274265E+00    1.2333361547E+00    1.2188516586E+00
    1.2046692128E+00    1.1907841032E+00    1.1771916272E+00    1.1638870954E+00
    1.1508658322E+00    1.1381231767E+00    1.1256544838E+00    1.1134551247E+00
    1.1015204877E+00    1.0898459821E+00    1.0784270390E+00    1.0672591097E+00
    1.0563376749E+00    1.0456582486E+00    1.0352163766E+00    1.0250076398E+00
    1.0150276559E+00    1.0052720811E+00    9.9573661144E-01    9.8641698441E-01
    9.7730897988E-01    9.6840842140E-01    9.5971117717E-01    9.5121316090E-01
    9.4291033266E-01    9.3479869952E-01    9.2687431626E-01    9.1913328581E-01
    9.1157175980E-01    9.0418593891E-01    8.9697207319E-01    8.8992646234E-01
    8.8304545593E-01    8.7632545352E-01    8.6976290476E-01    8.6335430947E-01
    8.5709621760E-01    8.5098522924E-01    8.4501799450E-01    8.3919121341E-01
    8.3350163578E-01    8.2794606101E-01    8.2252133787E-01    8.1722436425E-01
    8.1205208691E-01    8.0700150117E-01    8.0206965061E-01    7.9725362669E-01
    7.9255056843E-01    7.8795766199E-01    7.8347214028E-01    7.7909128256E-01
    7.7481241397E-01    7.7063290508E-01    7.6655017143E-01    7.6256167305E-01
    7.5866491392E-01    7.5485744150E-01    7.5113684618E-01    7.4750076071E-01
    7.4394685967E-01    7.4047285888E-01    7.3707651484E-01    7.3375562408E-01
    7.3050802254E-01    7.2733158496E-01    7.2422422450E-01    7.2118389156E-01
    7.1820857273E-01    7.1529629103E-01    7.1244510583E-01    7.0965311163E-01
    7.0691843856E-01    7.0423925354E-01    7.0161376075E-01    6.9904020226E-01
    6.9651685880E-01    6.9404205050E-01    6.9161413759E-01    6.8923152088E-01
    6.8689264201E-01    6.8459598338E-01    6.8234006767E-01    6.8012345699E-01
    6.7794475156E-01    6.7580258808E-01    6.7369563785E-01    6.7162260475E-01
    6.6958222333E-01    6.6757325693E-01    6.6559449618E-01    6.6364475773E-01
    6.6172288342E-01    6.5982773964E-01    6.5795821714E-01    6.5611323093E-01
    6.5429172042E-01    6.5249264960E-01    6.5071500731E-01    6.4895780745E-01
    6.4722008918E-01    6.4550091709E-01    6.4379938121E-01    6.4211459701E-01
    6.4044570533E-01    6.3879187214E-01    6.3715228836E-01    6.3552616951E-01
    6.3391275538E-01    6.3231130961E-01    6.3072111925E-01    6.2914149432E-01
    6.2757176731E-01    6.2601129267E-01    6.2445944631E-01    6.2291562507E-01
    6.2137924625E-01    6.1984974703E-01    6.1832658399E-01    6.1680923264E-01
    6.1529718685E-01    6.1378995843E-01    6.1228707661E-01    6.1078808761E-01
    6.0929255417E-01    6.0780005509E-01    6.0631018483E-01    6.0482255308E-01
    6.0333678435E-01    6.0185251757E-01    6.0036940575E-01    5.9888711552E-01
    5.9740532685E-01    5.9592373266E-01    5.9444203850E-01    5.9295996218E-01
    5.9147723347E-01    5.8999359381E-01    5.8850879593E-01    5.8702260364E-01
    5.8553479146E-01    5.8404514441E-01    5.8255345765E-01    5.8105953627E-01
    5.7956319501E-01    5.7806425800E-01    5.7656255848E-01    5.7505793860E-01
    5.7355024914E-01    5.7203934928E-01    5.7052510640E-01    5.6900739579E-01
    5.6748610048E-01    5.6596111101E-01    5.6443232519E-01    5.6289964792E-01
    5.6136299098E-01    5.5982227280E-01    5.5827741832E-01    5.5672835873E-01
    5.5517503133E-01    5.5361737932E-01    5.5205535164E-01    5.5048890275E-01
    5.4891799252E-01    5.4734258600E-01    5.4576265330E-01    5.4417816940E-01
    5.4258911401E-01    5.4099547138E-01    5.3939723019E-01    5.3779438341E-01
    5.3618692810E-01    5.3457486533E-01    5.3295820000E-01    5.3133694073E-01
    5.2971109973E-01    5.2808069267E-01    5.2644573856E-01    5.2480625962E-01
    5.2316228116E-01    5.2151383150E-01    5.1986094183E-01    5.1820364611E-01
    5.1654198096E-01    5.1487598557E-01    5.1320570160E-01    5.1153117308E-01
    5.0985244632E-01    5.0816956982E-01    5.0648259417E-01    5.0479157199E-01
    5.0309655782E-01    5.0139760808E-01    4.9969478092E-01    4.9798813623E-01
    4.9627773551E-01    4.9456364180E-01    4.9284591965E-01    4.9112463501E-01
    4.8939985518E-01    4.8767164876E-01    4.8594008557E-01    4.8420523659E-01
    4.8246717390E-01    4.8072597066E-01    4.7898170099E-01    4.7723443997E-01
    4.7548426356E-01    4.7373124857E-01    4.7197547258E-01    4.7021701392E-01
    4.6845595163E-01    4.6669236536E-01    4.6492633541E-01    4.6315794260E-01
    4.6138726829E-01    4.5961439432E-01    4.5783940296E-01    4.5606237688E-01
    4.5428339913E-01    4.5250255307E-01    4.5071992236E-01    4.4893559090E-01
    4.4714964283E-01    4.4536216248E-01    4.4357323434E-01    4.4178294301E-01
    4.3999137321E-01    4.3819860971E-01    4.3640473734E-01    4.3460984093E-01
    4.3281400530E-01    4.3101731522E-01    4.2921985540E-01    4.2742171047E-01
    4.2562296493E-01    4.2382370314E-01    4.2202400932E-01    4.2022396749E-01
    4.1842366148E-01    4.1662317486E-01    4.1482259100E-01    4.1302199299E-01
    4.1122146362E-01    4.0942108539E-01    4.0762094048E-01    4.0582111074E-01
    4.0402167766E-01    4.0222272234E-01    4.0042432553E-01    3.9862656756E-01
    3.9682952833E-01    3.9503328733E-01    3.9323792360E-01    3.9144351572E-01
    3.8965014181E-01    3.8785787948E-01    3.8606680587E-01    3.8427699761E-01
    3.8248853079E-01    3.8070148101E-01    3.7891592330E-01    3.7713193214E-01
    3.7534958147E-01    3.7356894464E-01    3.7179009446E-01    3.7001310310E-01
    3.6823804218E-01    3.6646498271E-01    3.6469399507E-01    3.6292514905E-01
    3.6115851379E-01    3.5939415784E-01    3.5763214907E-01    3.5587255473E-01
    3.5411544143E-01    3.5236087511E-01    3.5060892107E-01    3.4885964393E-01
    3.4711310766E-01    3.4536937554E-01    3.4362851019E-01    3.4189057355E-01
    3.4015562687E-01    3.3842373073E-01    3.3669494501E-01    3.3496932889E-01
    3.3324694088E-01    3.3152783878E-01    3.2981207969E-01    3.2809972002E-01
    3.2639081548E-01    3.2468542107E-01    3.2298359108E-01    3.2128537912E-01
    3.1959083807E-01    3.1790002012E-01    3.1621297674E-01    3.1452975871E-01
    3.1285041610E-01    3.1117499825E-01    3.0950355383E-01    3.0783613078E-01
    3.0617277634E-01    3.0451353705E-01    3.0285845873E-01    3.0120758654E-01
    2.9956096488E-01    2.9791863749E-01    2.9628064741E-01    2.9464703696E-01
    2.9301784779E-01    2.9139312084E-01    2.8977289635E-01    2.8815721391E-01
    2.8654611238E-01    2.8493962995E-01    2.8333780413E-01    2.8174067175E-01
    2.8014826897E-01    2.7856063125E-01    2.7697779340E-01    2.7539978956E-01
    2.7382665319E-01    2.7225841710E-01    2.7069511344E-01    2.6913677368E-01
    2.6758342868E-01    2.6603510860E-01    2.6449184299E-01    2.6295366075E-01
    2.6142059012E-01    2.5989265873E-01    2.5836989356E-01    2.5685232097E-01
    2.5533996670E-01    2.5383285587E-01    2.5233101294E-01    2.5083446179E-01
    2.4934322569E-01    2.4785732735E-01    2.4637678883E-01    2.4490163161E-01
    2.4343187656E-01    2.4196754398E-01    2.4050865357E-01    2.3905522447E-01
    2.3760727524E-01    2.3616482385E-01    2.3472788773E-01    2.3329648374E-01
    2.3187062817E-01    2.3045033678E-01    2.2903562476E-01    2.2762650678E-01
    2.2622299694E-01    2.2482510885E-01    2.2343285555E-01    2.2204624957E-01
    2.2066530292E-01    2.1929002710E-01    2.1792043309E-01    2.1655653138E-01
    2.1519833193E-01    2.1384584422E-01    2.1249907726E-01    2.1115803953E-01
    2.0982273906E-01    2.0849318339E-01    2.0716937959E-01    2.0585133426E-01
    2.0453905354E-01    2.0323254310E-01    2.0193180818E-01    2.0063685355E-01
    1.9934768353E-01    1.9806430204E-01    1.9678671251E-01    1.9551491799E-01
    1.9424892107E-01    1.9298872395E-01    1.9173432838E-01    1.9048573572E-01
    1.8924294692E-01    1.8800596253E-01    1.8677478271E-01    1.8554940721E-01
    1.8432983540E-01    1.8311606628E-01    1.8190809846E-01    1.8070593016E-01
    1.7950955927E-01    1.7831898328E-01    1.7713419935E-01    1.7595520425E-01
    1.7478199443E-01    1.7361456598E-01    1.7245291466E-01    1.7129703587E-01
    1.7014692470E-01    1.6900257590E-01    1.6786398390E-01    1.6673114281E-01
    1.6560404643E-01    1.6448268824E-01    1.6336706142E-01    1.6225715885E-01
    1.6115297311E-01    1.6005449648E-01    1.5896172096E-01    1.5787463827E-01
    1.5679323983E-01    1.5571751681E-01    1.5464746008E-01    1.5358306027E-01
    1.5252430772E-01    1.5147119253E-01    1.5042370454E-01    1.4938183333E-01
    1.4834556823E-01    1.4731489835E-01    1.4628981254E-01    1.4527029941E-01
    1.4425634736E-01    1.4324794454E-01    1.4224507888E-01    1.4124773811E-01
    1.4025590972E-01    1.3926958100E-01    1.3828873903E-01    1.3731337067E-01
    1.3634346261E-01    1.3537900130E-01    1.3441997303E-01    1.3346636390E-01
    1.3251815979E-01    1.3157534643E-01    1.3063790936E-01    1.2970583394E-01
    1.2877910536E-01    1.2785770863E-01    1.2694162862E-01    1.2603085001E-01
    1.2512535733E-01    1.2422513496E-01    1.2333016713E-01    1.2244043790E-01
    1.2155593120E-01    1.2067663083E-01    1.1980252042E-01    1.1893358347E-01
    1.1806980338E-01    1.1721116337E-01    1.1635764658E-01    1.1550923598E-01
    1.1466591445E-01    1.1382766475E-01    1.1299446950E-01    1.1216631124E-01
    1.1134317239E-01    1.1052503524E-01    1.0971188201E-01    1.0890369480E-01
    1.0810045561E-01    1.0730214636E-01    1.0650874885E-01    1.0572024483E-01
    1.0493661592E-01    1.0415784368E-01    1.0338390958E-01    1.0261479502E-01
    1.0185048132E-01    1.0109094970E-01    1.0033618135E-01    9.9586157357E-02
    9.8840858757E-02    9.8100266516E-02    9.7364361539E-02    9.6633124671E-02
    9.5906536699E-02    9.5184578355E-02    9.4467230316E-02    9.3754473211E-02
    9.3046287618E-02    9.2342654070E-02    9.1643553055E-02    9.0948965019E-02
    9.0258870368E-02    8.9573249471E-02    8.8892082659E-02    8.8215350230E-02
    8.7543032453E-02    8.6875109562E-02    8.6211561768E-02    8.5552369253E-02
    8.4897512176E-02    8.4246970675E-02    8.3600724865E-02    8.2958754846E-02
    8.2321040699E-02    8.1687562491E-02    8.1058300276E-02    8.0433234097E-02
    7.9812343986E-02    7.9195609969E-02    7.8583012066E-02    7.7974530291E-02
    7.7370144654E-02    7.6769835168E-02    7.6173581842E-02    7.5581364689E-02
    7.4993163725E-02    7.4408958971E-02    7.3828730454E-02    7.3252458208E-02
    7.2680122279E-02    7.2111702722E-02    7.1547179603E-02    7.0986533003E-02
    7.0429743018E-02    6.9876789761E-02    6.9327653359E-02    6.8782313963E-02
    6.8240751739E-02    6.7702946879E-02    6.7168879593E-02    6.6638530119E-02
    6.6111878718E-02    6.5588905678E-02    6.5069591313E-02    6.4553915967E-02
    6.4041860013E-02    6.3533403855E-02    6.3028527928E-02    6.2527212702E-02
    6.2029438678E-02    6.1535186395E-02    6.1044436425E-02    6.0557169380E-02
    6.0073365908E-02    5.9593006696E-02    5.9116072471E-02    5.8642544001E-02
    5.8172402097E-02    5.7705627609E-02    5.7242201435E-02    5.6782104513E-02
    5.6325317829E-02    5.5871822413E-02    5.5421599344E-02    5.4974629747E-02
    5.4530894795E-02    5.4090375711E-02    5.3653053768E-02    5.3218910288E-02
    5.2787926645E-02    5.2360084267E-02    5.1935364630E-02    5.1513749269E-02
    5.1095219767E-02    5.0679757767E-02    5.0267344964E-02    4.9857963109E-02
    4.9451594010E-02    4.9048219533E-02    4.8647821599E-02    4.8250382189E-02
    4.7855883343E-02    4.7464307159E-02    4.7075635794E-02    4.6689851467E-02
    4.6306936457E-02    4.5926873104E-02    4.5549643809E-02    4.5175231036E-02
    4.4803617311E-02    4.4434785224E-02    4.4068717425E-02    4.3705396632E-02
    4.3344805625E-02    4.2986927248E-02    4.2631744411E-02    4.2279240088E-02
    4.1929397321E-02    4.1582199214E-02    4.1237628940E-02    4.0895669739E-02
    4.0556304917E-02    4.0219517845E-02    3.9885291964E-02    3.9553610782E-02
    3.9224457876E-02    3.8897816889E-02    3.8573671533E-02    3.8252005590E-02
    3.7932802910E-02    3.7616047411E-02    3.7301723083E-02    3.6989813983E-02
    3.6680304239E-02    3.6373178047E-02    3.6068419676E-02    3.5766013464E-02
    3.5465943817E-02    3.5168195214E-02    3.4872752204E-02    3.4579599407E-02
    3.4288721514E-02    3.4000103286E-02    3.3713729554E-02    3.3429585224E-02
    3.3147655269E-02    3.2867924737E-02    3.2590378744E-02    3.2315002479E-02
    3.2041781204E-02    3.1770700249E-02    3.1501745019E-02    3.1234900989E-02
    3.0970153705E-02    3.0707488787E-02    3.0446891924E-02    3.0188348879E-02
    2.9931845484E-02    2.9677367646E-02    2.9424901341E-02    2.9174432618E-02
    2.8925947598E-02    2.8679432472E-02    2.8434873504E-02    2.8192257028E-02
    2.7951569452E-02    2.7712797254E-02    2.7475926982E-02    2.7240945259E-02
    2.7007838775E-02    2.6776594294E-02    2.6547198651E-02    2.6319638750E-02
    2.6093901569E-02    2.5869974154E-02    2.5647843623E-02    2.5427497166E-02
    2.5208922041E-02    2.4992105578E-02    2.4777035177E-02    2.4563698309E-02
    2.4352082514E-02    2.4142175401E-02    2.3933964652E-02    2.3727438017E-02
    2.3522583314E-02    2.3319388433E-02    2.3117841331E-02    2.2917930038E-02
    2.2719642648E-02    2.2522967327E-02    2.2327892309E-02    2.2134405896E-02
    2.1942496459E-02    2.1752152437E-02    2.1563362336E-02    2.1376114733E-02
    2.1190398268E-02    2.1006201653E-02    2.0823513663E-02    2.0642323143E-02
    2.0462619005E-02    2.0284390227E-02    2.0107625852E-02    1.9932314992E-02
    1.9758446823E-02    1.9586010588E-02    1.9414995595E-02    1.9245391220E-02
    1.9077186900E-02    1.8910372140E-02    1.8744936510E-02    1.8580869643E-02
    1.8418161238E-02    1.8256801057E-02    1.8096778927E-02    1.7938084738E-02
    1.7780708444E-02    1.7624640062E-02    1.7469869672E-02    1.7316387418E-02
    1.7164183505E-02    1.7013248202E-02    1.6863571838E-02    1.6715144805E-02
    1.6567957559E-02    1.6422000613E-02    1.6277264544E-02    1.6133739991E-02
    1.5991417650E-02    1.5850288281E-02    1.5710342702E-02    1.5571571792E-02
    1.5433966489E-02    1.5297517792E-02    1.5162216758E-02    1.5028054502E-02
    1.4895022200E-02    1.4763111085E-02    1.4632312448E-02    1.4502617639E-02
    1.4374018064E-02    1.4246505189E-02    1.4120070536E-02    1.3994705682E-02
    1.3870402263E-02    1.3747151970E-02    1.3624946553E-02    1.3503777813E-02
    1.3383637612E-02    1.3264517862E-02    1.3146410534E-02    1.3029307653E-02
    1.2913201298E-02    1.2798083602E-02    1.2683946753E-02    1.2570782992E-02
    1.2458584613E-02    1.2347343966E-02    1.2237053450E-02    1.2127705519E-02
    1.2019292681E-02    1.1911807492E-02    1.1805242564E-02    1.1699590558E-02
    1.1594844188E-02    1.1490996218E-02    1.1388039463E-02    1.1285966790E-02
    1.1184771115E-02    1.1084445403E-02    1.0984982672E-02    1.0886375987E-02
    1.0788618462E-02    1.0691703262E-02    1.0595623600E-02    1.0500372736E-02
    1.0405943980E-02    1.0312330690E-02    1.0219526270E-02    1.0127524173E-02
    1.0036317899E-02    9.9459009945E-03    9.8562670521E-03    9.7674097117E-03
    9.6793226590E-03    9.5919996256E-03    9.5054343888E-03    9.4196207709E-03
    9.3345526397E-03    9.2502239075E-03    9.1666285314E-03    9.0837605126E-03
    9.0016138966E-03    8.9201827723E-03    8.8394612727E-03    8.7594435735E-03
    8.6801238939E-03    8.6014964956E-03    8.5235556828E-03    8.4462958023E-03
    8.3697112424E-03    8.2937964337E-03    8.2185458479E-03    8.1439539982E-03
    8.0700154387E-03    7.9967247643E-03    7.9240766105E-03    7.8520656528E-03
    7.7806866071E-03    7.7099342287E-03    7.6398033128E-03    7.5702886935E-03
    7.5013852443E-03    7.4330878773E-03    7.3653915431E-03    7.2982912309E-03
    7.2317819676E-03    7.1658588181E-03    7.1005168851E-03    7.0357513084E-03
    6.9715572650E-03    6.9079299687E-03    6.8448646701E-03    6.7823566561E-03
    6.7204012498E-03    6.6589938104E-03    6.5981297326E-03    6.5378044467E-03
    6.4780134181E-03    6.4187521475E-03    6.3600161702E-03    6.3018010560E-03
    6.2441024094E-03    6.1869158685E-03    6.1302371057E-03    6.0740618269E-03
    6.0183857715E-03    5.9632047121E-03    5.9085144542E-03    5.8543108362E-03
    5.8005897291E-03    5.7473470362E-03    5.6945786928E-03    5.6422806662E-03
    5.5904489556E-03    5.5390795913E-03    5.4881686352E-03    5.4377121800E-03
    5.3877063494E-03    5.3381472977E-03    5.2890312096E-03    5.2403543000E-03
    5.1921128139E-03    5.1443030259E-03    5.0969212405E-03    5.0499637913E-03
    5.0034270413E-03    4.9573073822E-03    4.9116012349E-03    4.8663050486E-03
    4.8214153009E-03    4.7769284976E-03    4.7328411725E-03    4.6891498873E-03
    4.6458512311E-03    4.6029418205E-03    4.5604182994E-03    4.5182773385E-03
    4.4765156355E-03    4.4351299147E-03    4.3941169267E-03    4.3534734485E-03
    4.3131962833E-03    4.2732822598E-03    4.2337282327E-03    4.1945310820E-03
    4.1556877134E-03    4.1171950573E-03    4.0790500692E-03    4.0412497296E-03
    4.0037910433E-03    3.9666710397E-03    3.9298867724E-03    3.8934353191E-03
    3.8573137814E-03    3.8215192844E-03    3.7860489772E-03    3.7509000318E-03
    3.7160696436E-03    3.6815550312E-03    3.6473534358E-03    3.6134621214E-03
    3.5798783745E-03    3.5465995040E-03    3.5136228410E-03    3.4809457386E-03
    3.4485655717E-03    3.4164797369E-03    3.3846856526E-03    3.3531807582E-03
    3.3219625146E-03    3.2910284036E-03    3.2603759281E-03    3.2300026114E-03
    3.1999059977E-03    3.1700836516E-03    3.1405331578E-03    3.1112521213E-03
    3.0822381670E-03    3.0534889397E-03    3.0250021036E-03    2.9967753428E-03
    2.9688063606E-03    2.9410928795E-03    2.9136326412E-03    2.8864234060E-03
    2.8594629535E-03    2.8327490816E-03    2.8062796067E-03    2.7800523638E-03
    2.7540652058E-03    2.7283160039E-03    2.7028026473E-03    2.6775230428E-03
    2.6524751149E-03    2.6276568057E-03    2.6030660747E-03    2.5787008987E-03
    2.5545592714E-03    2.5306392037E-03    2.5069387233E-03    2.4834558747E-03
    2.4601887188E-03    2.4371353331E-03    2.4142938114E-03    2.3916622638E-03
    2.3692388164E-03    2.3470216112E-03    2.3250088061E-03    2.3031985747E-03
    2.2815891063E-03    2.2601786054E-03    2.2389652920E-03    2.2179474013E-03
    2.1971231836E-03    2.1764909042E-03    2.1560488431E-03    2.1357952953E-03
    2.1157285701E-03    2.0958469917E-03    2.0761488983E-03    2.0566326426E-03
    2.0372965915E-03    2.0181391257E-03    1.9991586401E-03    1.9803535433E-03
    1.9617222576E-03    1.9432632189E-03    1.9249748767E-03    1.9068556938E-03
    1.8889041463E-03    1.8711187234E-03    1.8534979275E-03    1.8360402737E-03
    1.8187442904E-03    1.8016085183E-03    1.7846315111E-03    1.7678118347E-03
    1.7511480676E-03    1.7346388009E-03    1.7182826375E-03    1.7020781927E-03
    1.6860240939E-03    1.6701189801E-03    1.6543615026E-03    1.6387503241E-03
    1.6232841192E-03    1.6079615738E-03    1.5927813855E-03    1.5777422632E-03
    1.5628429270E-03    1.5480821083E-03    1.5334585495E-03    1.5189710041E-03
    1.5046182363E-03    1.4903990214E-03    1.4763121453E-03    1.4623564045E-03
    1.4485306061E-03    1.4348335677E-03    1.4212641173E-03    1.4078210930E-03
    1.3945033433E-03    1.3813097269E-03    1.3682391124E-03    1.3552903782E-03
    1.3424624130E-03    1.3297541149E-03    1.3171643919E-03    1.3046921616E-03
    1.2923363511E-03    1.2800958972E-03    1.2679697456E-03    1.2559568519E-03
    1.2440561804E-03    1.2322667051E-03    1.2205874085E-03    1.2090172826E-03
    1.1975553281E-03    1.1862005545E-03    1.1749519802E-03    1.1638086323E-03
    1.1527695465E-03    1.1418337670E-03    1.1310003466E-03    1.1202683464E-03
    1.1096368359E-03    1.0991048930E-03    1.0886716036E-03    1.0783360619E-03
    1.0680973699E-03    1.0579546380E-03    1.0479069842E-03    1.0379535346E-03
    1.0280934228E-03    1.0183257903E-03    1.0086497865E-03    9.9906456794E-04
    9.8956929902E-04    9.8016315150E-04    9.7084530454E-04    9.6161494468E-04
    9.5247126571E-04    9.4341346865E-04    9.3444076168E-04    9.2555236005E-04
    9.1674748609E-04    9.0802536907E-04    8.9938524517E-04    8.9082635745E-04
    8.8234795576E-04    8.7394929667E-04    8.6562964344E-04    8.5738826597E-04
    8.4922444069E-04    8.4113745058E-04    8.3312658503E-04    8.2519113986E-04
    8.1733041723E-04    8.0954372556E-04    8.0183037953E-04    7.9418970000E-04
    7.8662101393E-04    7.7912365438E-04    7.7169696041E-04    7.6434027707E-04
    7.5705295530E-04    7.4983435193E-04    7.4268382958E-04    7.3560075667E-04
    7.2858450728E-04    7.2163446121E-04    7.1475000383E-04    7.0793052610E-04
    7.0117542449E-04    6.9448410095E-04    6.8785596283E-04    6.8129042288E-04
    6.7478689915E-04    6.6834481499E-04    6.6196359899E-04    6.5564268490E-04
    6.4938151165E-04    6.4317952324E-04    6.3703616874E-04    6.3095090221E-04
    6.2492318272E-04    6.1895247420E-04    6.1303824551E-04    6.0717997033E-04
    6.0137712713E-04    5.9562919912E-04    5.8993567424E-04    5.8429604510E-04
    5.7870980893E-04    5.7317646753E-04    5.6769552727E-04    5.6226649902E-04
    5.5688889811E-04    5.5156224431E-04    5.4628606176E-04    5.4105987896E-04
    5.3588322872E-04    5.3075564813E-04    5.2567667849E-04    5.2064586533E-04
    5.1566275832E-04    5.1072691125E-04    5.0583788201E-04    5.0099523254E-04
    4.9619852879E-04    4.9144734068E-04    4.8674124209E-04    4.8207981079E-04
    4.7746262846E-04    4.7288928057E-04    4.6835935643E-04    4.6387244912E-04
    4.5942815544E-04    4.5502607591E-04    4.5066581472E-04    4.4634697968E-04
    4.4206918224E-04    4.3783203740E-04    4.3363516371E-04    4.2947818323E-04
    4.2536072149E-04    4.2128240749E-04    4.1724287364E-04    4.1324175571E-04
    4.0927869287E-04    4.0535332759E-04    4.0146530564E-04    3.9761427606E-04
    3.9379989113E-04    3.9002180634E-04    3.8627968035E-04    3.8257317498E-04
    3.7890195518E-04    3.7526568897E-04    3.7166404748E-04    3.6809670484E-04
    3.6456333820E-04    3.6106362772E-04    3.5759725650E-04    3.5416391056E-04
    3.5076327886E-04    3.4739505320E-04    3.4405892826E-04    3.4075460155E-04
    3.3748177335E-04    3.3424014676E-04    3.3102942761E-04    3.2784932445E-04
    3.2469954854E-04    3.2157981383E-04    3.1848983691E-04    3.1542933699E-04
    3.1239803591E-04    3.0939565809E-04    3.0642193048E-04    3.0347658260E-04
    3.0055934647E-04    2.9766995659E-04    2.9480814995E-04    2.9197366596E-04
    2.8916624646E-04    2.8638563572E-04    2.8363158035E-04    2.8090382933E-04
    2.7820213398E-04    2.7552624795E-04    2.7287592715E-04    2.7025092979E-04
    2.6765101632E-04    2.6507594942E-04    2.6252549401E-04    2.5999941715E-04
    2.5749748812E-04    2.5501947832E-04    2.5256516131E-04    2.5013431273E-04
    2.4772671033E-04    2.4534213394E-04    2.4298036545E-04    2.4064118876E-04
    2.3832438981E-04    2.3602975653E-04    2.3375707885E-04    2.3150614863E-04
    2.2927675970E-04    2.2706870781E-04    2.2488179062E-04    2.2271580769E-04
    2.2057056044E-04    2.1844585216E-04    2.1634148797E-04    2.1425727483E-04
    2.1219302149E-04    2.1014853850E-04    2.0812363819E-04    2.0611813463E-04
    2.0413184365E-04    2.0216458279E-04    2.0021617131E-04    1.9828643016E-04
    1.9637518199E-04    1.9448225107E-04    1.9260746335E-04    1.9075064641E-04
    1.8891162944E-04    1.8709024323E-04    1.8528632018E-04    1.8349969423E-04
    1.8173020090E-04    1.7997767725E-04    1.7824196189E-04    1.7652289490E-04
    1.7482031791E-04    1.7313407401E-04    1.7146400778E-04    1.6980996525E-04
    1.6817179390E-04    1.6654934266E-04    1.6494246185E-04    1.6335100323E-04
    1.6177481993E-04    1.6021376648E-04    1.5866769877E-04    1.5713647405E-04
    1.5561995091E-04    1.5411798928E-04    1.5263045040E-04    1.5115719682E-04
    1.4969809239E-04    1.4825300223E-04    1.4682179276E-04    1.4540433162E-04
    1.4400048772E-04    1.4261013122E-04    1.4123313346E-04    1.3986936705E-04
    1.3851870576E-04    1.3718102456E-04    1.3585619961E-04    1.3454410824E-04
    1.3324462892E-04    1.3195764128E-04    1.3068302609E-04    1.2942066524E-04
    1.2817044173E-04    1.2693223969E-04    1.2570594431E-04    1.2449144188E-04
    1.2328861978E-04    1.2209736644E-04    1.2091757134E-04    1.1974912501E-04
    1.1859191902E-04    1.1744584596E-04    1.1631079945E-04    1.1518667408E-04
    1.1407336548E-04    1.1297077025E-04    1.1187878596E-04    1.1079731116E-04
    1.0972624537E-04    1.0866548903E-04    1.0761494356E-04    1.0657451129E-04
    1.0554409548E-04    1.0452360031E-04    1.0351293087E-04    1.0251199314E-04
    1.0152069400E-04    1.0053894121E-04    9.9566643407E-05    9.8603710089E-05
    9.7650051615E-05    9.6705579195E-05    9.5770204879E-05    9.4843841555E-05
    9.3926402933E-05    9.3017803546E-05    9.2117958737E-05    9.1226784650E-05
    9.0344198229E-05    8.9470117204E-05    8.8604460087E-05    8.7747146164E-05
    8.6898095487E-05    8.6057228868E-05    8.5224467872E-05    8.4399734809E-05
    8.3582952725E-05    8.2774045401E-05    8.1972937340E-05    8.1179553764E-05
    8.0393820605E-05    7.9615664500E-05    7.8845012783E-05    7.8081793479E-05
    7.7325935300E-05    7.6577367633E-05    7.5836020539E-05    7.5101824743E-05
    7.4374711631E-05    7.3654613240E-05    7.2941462256E-05    7.2235192004E-05
    7.1535736445E-05    7.0843030169E-05    7.0157008388E-05    6.9477606931E-05
    6.8804762240E-05    6.8138411360E-05    6.7478491939E-05    6.6824942215E-05
    6.6177701018E-05    6.5536707759E-05    6.4901902428E-05    6.4273225587E-05
    6.3650618362E-05    6.3034022445E-05    6.2423380079E-05    6.1818634062E-05
    6.1219727736E-05    6.0626604982E-05    6.0039210218E-05    5.9457488392E-05
    5.8881384979E-05    5.8310845970E-05    5.7745817876E-05    5.7186247716E-05
    5.6632083016E-05    5.6083271802E-05    5.5539762596E-05    5.5001504413E-05
    5.4468446754E-05    5.3940539603E-05    5.3417733420E-05    5.2899979140E-05
    5.2387228165E-05    5.1879432365E-05    5.1376544065E-05    5.0878516049E-05
    5.0385301551E-05    4.9896854253E-05    4.9413128278E-05    4.8934078189E-05
    4.8459658984E-05    4.7989826088E-05    4.7524535357E-05    4.7063743066E-05
    4.6607405908E-05    4.6155480993E-05    4.5707925839E-05    4.5264698370E-05
    4.4825756915E-05    4.4391060199E-05    4.3960567344E-05    4.3534237864E-05
    4.3112031657E-05    4.2693909007E-05    4.2279830580E-05    4.1869757416E-05
    4.1463650928E-05    4.1061472900E-05    4.0663185482E-05    4.0268751185E-05
    3.9878132880E-05    3.9491293794E-05    3.9108197505E-05    3.8728807942E-05
    3.8353089378E-05    3.7981006428E-05    3.7612524049E-05    3.7247607529E-05
    3.6886222494E-05    3.6528334896E-05    3.6173911014E-05    3.5822917451E-05
    3.5475321130E-05    3.5131089291E-05    3.4790189489E-05    3.4452589588E-05
    3.4118257762E-05    3.3787162491E-05    3.3459272555E-05    3.3134557035E-05
    3.2812985308E-05    3.2494527047E-05    3.2179152212E-05    3.1866831055E-05
    3.1557534112E-05    3.1251232200E-05    3.0947896420E-05    3.0647498148E-05
    3.0350009035E-05    3.0055401003E-05    2.9763646247E-05    2.9474717225E-05
    2.9188586662E-05    2.8905227545E-05    2.8624613120E-05    2.8346716888E-05
    2.8071512608E-05    2.7798974288E-05    2.7529076188E-05    2.7261792815E-05
    2.6997098918E-05    2.6734969494E-05    2.6475379775E-05    2.6218305234E-05
    2.5963721580E-05    2.5711604753E-05    2.5461930926E-05    2.5214676502E-05
    2.4969818109E-05    2.4727332600E-05    2.4487197052E-05    2.4249388760E-05
    2.4013885241E-05    2.3780664224E-05    2.3549703655E-05    2.3320981691E-05
    2.3094476700E-05    2.2870167257E-05    2.2648032144E-05    2.2428050347E-05
    2.2210201053E-05    2.1994463652E-05    2.1780817729E-05    2.1569243067E-05
    2.1359719645E-05    2.1152227632E-05    2.0946747390E-05    2.0743259469E-05
    2.0541744607E-05    2.0342183726E-05    2.0144557933E-05    1.9948848516E-05
    1.9755036945E-05    1.9563104866E-05    1.9373034103E-05    1.9184806656E-05
    1.8998404696E-05    1.8813810567E-05    1.8631006784E-05    1.8449976029E-05
    1.8270701151E-05    1.8093165166E-05    1.7917351251E-05    1.7743242746E-05
    1.7570823153E-05    1.7400076131E-05    1.7230985498E-05    1.7063535227E-05
    1.6897709446E-05    1.6733492435E-05    1.6570868627E-05    1.6409822604E-05
    1.6250339097E-05    1.6092402984E-05    1.5935999289E-05    1.5781113181E-05
    1.5627729970E-05    1.5475835111E-05    1.5325414196E-05    1.5176452957E-05
    1.5028937264E-05    1.4882853124E-05    1.4738186678E-05    1.4594924199E-05
    1.4453052097E-05    1.4312556908E-05    1.4173425301E-05    1.4035644073E-05
    1.3899200148E-05    1.3764080577E-05    1.3630272534E-05    1.3497763320E-05
    1.3366540355E-05    1.3236591182E-05    1.3107903466E-05    1.2980464988E-05
    1.2854263648E-05    1.2729287464E-05    1.2605524569E-05    1.2482963209E-05
    1.2361591746E-05    1.2241398653E-05    1.2122372515E-05    1.2004502025E-05
    1.1887775988E-05    1.1772183316E-05    1.1657713028E-05    1.1544354249E-05
    1.1432096209E-05    1.1320928242E-05    1.1210839786E-05    1.1101820380E-05
    1.0993859663E-05    1.0886947377E-05    1.0781073361E-05    1.0676227552E-05
    1.0572399986E-05    1.0469580793E-05    1.0367760200E-05    1.0266928528E-05
    1.0167076191E-05    1.0068193696E-05    9.9702716428E-06    9.8733007204E-06
    9.7772717087E-06    9.6821754763E-06    9.5880029804E-06    9.4947452655E-06
    9.4023934625E-06    9.3109387883E-06    9.2203725446E-06    9.1306861171E-06
    9.0418709749E-06    8.9539186696E-06    8.8668208344E-06    8.7805691835E-06
    8.6951555112E-06    8.6105716910E-06    8.5268096752E-06    8.4438614938E-06
    8.3617192540E-06    8.2803751393E-06    8.1998214086E-06    8.1200503960E-06
    8.0410545095E-06    7.9628262307E-06    7.8853581139E-06    7.8086427854E-06
    7.7326729427E-06    7.6574413543E-06    7.5829408583E-06    7.5091643624E-06
    7.4361048426E-06    7.3637553433E-06    7.2921089757E-06    7.2211589181E-06
    7.1508984146E-06    7.0813207747E-06    7.0124193726E-06    6.9441876469E-06
    6.8766190994E-06    6.8097072948E-06    6.7434458604E-06    6.6778284849E-06
    6.6128489182E-06    6.5485009707E-06    6.4847785127E-06    6.4216754738E-06
    6.3591858425E-06    6.2973036654E-06    6.2360230468E-06    6.1753381481E-06
    6.1152431872E-06    6.0557324378E-06    5.9968002295E-06    5.9384409464E-06
    5.8806490273E-06    5.8234189645E-06    5.7667453039E-06    5.7106226442E-06
    5.6550456364E-06    5.6000089833E-06    5.5455074390E-06    5.4915358083E-06
    5.4380889467E-06    5.3851617590E-06    5.3327491998E-06    5.2808462724E-06
    5.2294480286E-06    5.1785495679E-06    5.1281460376E-06    5.0782326318E-06
    5.0288045913E-06    4.9798572029E-06    4.9313857991E-06    4.8833857577E-06
    4.8358525013E-06    4.7887814967E-06    4.7421682547E-06    4.6960083299E-06
    4.6502973194E-06    4.6050308636E-06    4.5602046446E-06    4.5158143868E-06
    4.4718558558E-06    4.4283248583E-06    4.3852172416E-06    4.3425288933E-06
    4.3002557409E-06    4.2583937514E-06    4.2169389309E-06    4.1758873239E-06
    4.1352350138E-06    4.0949781216E-06    4.0551128059E-06    4.0156352628E-06
    3.9765417251E-06    3.9378284621E-06    3.8994917794E-06    3.8615280183E-06
    3.8239335557E-06    3.7867048035E-06    3.7498382086E-06    3.7133302521E-06
    3.6771774495E-06    3.6413763499E-06    3.6059235359E-06    3.5708156232E-06
    3.5360492606E-06    3.5016211291E-06    3.4675279419E-06    3.4337664444E-06
    3.4003334132E-06    3.3672256563E-06    3.3344400128E-06    3.3019733523E-06
    3.2698225749E-06    3.2379846105E-06    3.2064564192E-06    3.1752349902E-06
    3.1443173423E-06    3.1137005228E-06    3.0833816080E-06    3.0533577024E-06
    3.0236259386E-06    2.9941834771E-06    2.9650275059E-06    2.9361552403E-06
    2.9075639226E-06    2.8792508219E-06    2.8512132337E-06    2.8234484800E-06
    2.7959539085E-06    2.7687268929E-06    2.7417648321E-06    2.7150651504E-06
    2.6886252973E-06    2.6624427466E-06    2.6365149971E-06    2.6108395715E-06
    2.5854140168E-06    2.5602359037E-06    2.5353028265E-06    2.5106124029E-06
    2.4861622736E-06    2.4619501022E-06    2.4379735753E-06    2.4142304016E-06
    2.3907183121E-06    2.3674350601E-06    2.3443784203E-06    2.3215461894E-06
    2.2989361852E-06    2.2765462469E-06    2.2543742345E-06    2.2324180289E-06
    2.2106755316E-06    2.1891446643E-06    2.1678233691E-06    2.1467096080E-06
    2.1258013627E-06    2.1050966346E-06    2.0845934445E-06    2.0642898324E-06
    2.0441838574E-06    2.0242735974E-06    2.0045571489E-06    1.9850326270E-06
    1.9656981650E-06    1.9465519145E-06    1.9275920448E-06    1.9088167432E-06
 </PP_RHOATOM>
 <PP_TAUMOD type="real"  size="1940" columns="4">
    1.9452273032E+01    1.9449997085E+01    1.9443170345E+01    1.9431796120E+01
    1.9415879921E+01    1.9395429459E+01    1.9370454643E+01    1.9340967577E+01
    1.9306982552E+01    1.9268516042E+01    1.9225586700E+01    1.9178215342E+01
    1.9126424946E+01    1.9070240642E+01    1.9009689696E+01    1.8944801504E+01
    1.8875607576E+01    1.8802141526E+01    1.8724439055E+01    1.8642537938E+01
    1.8556478008E+01    1.8466301136E+01    1.8372051217E+01    1.8273774150E+01
    1.8171517817E+01    1.8065332066E+01    1.7955268683E+01    1.7841381378E+01
    1.7723725755E+01    1.7602359292E+01    1.7477341312E+01    1.7348732961E+01
    1.7216597178E+01    1.7080998670E+01    1.6942003879E+01    1.6799680958E+01
    1.6654099736E+01    1.6505331686E+01    1.6353449897E+01    1.6198529038E+01
    1.6040645321E+01    1.5879876473E+01    1.5716301692E+01    1.5550001615E+01
    1.5381058279E+01    1.5209555082E+01    1.5035576742E+01    1.4859209260E+01
    1.4680539873E+01    1.4499657017E+01    1.4316650279E+01    1.4131610358E+01
    1.3944629014E+01    1.3755799026E+01    1.3565214143E+01    1.3372969036E+01
    1.3179159251E+01    1.2983881157E+01    1.2787231899E+01    1.2589309339E+01
    1.2390212013E+01    1.2190039069E+01    1.1988890220E+01    1.1786865682E+01
    1.1584066123E+01    1.1380592604E+01    1.1176546520E+01    1.0972029543E+01
    1.0767143562E+01    1.0561990619E+01    1.0356672853E+01    1.0151292433E+01
    9.9459514961E+00    9.7407520823E+00    9.5357960711E+00    9.3311851134E+00
    9.1270205653E+00    8.9234034199E+00    8.7204342380E+00    8.5182130790E+00
    8.3168394294E+00    8.1164121314E+00    7.9170293104E+00    7.7187883015E+00
    7.5217855748E+00    7.3261166604E+00    7.1318760719E+00    6.9391572294E+00
    6.7480523814E+00    6.5586525258E+00    6.3710473300E+00    6.1853250500E+00
    6.0015724488E+00    5.8198747138E+00    5.6403153730E+00    5.4629762108E+00
    5.2879371826E+00    5.1152763284E+00    4.9450696855E+00    4.7773912005E+00
    4.6123126406E+00    4.4499035031E+00    4.2902309247E+00    4.1333595899E+00
    3.9793516384E+00    3.8282665712E+00    3.6801611561E+00    3.5350893326E+00
    3.3931021154E+00    3.2542474968E+00    3.1185703493E+00    2.9861123258E+00
    2.8569117600E+00    2.7310035653E+00    2.6084191333E+00    2.4891862305E+00
    2.3733288955E+00    2.2608673335E+00    2.1518178115E+00    2.0461925519E+00
    1.9439996247E+00    1.8452428397E+00    1.7499216376E+00    1.6580309792E+00
    1.5695612353E+00    1.4844980743E+00    1.4028223495E+00    1.3245099859E+00
    1.2495318647E+00    1.1778537086E+00    1.1094359651E+00    1.0442336890E+00
    9.8219642437E-01    9.2326808532E-01    8.6738683587E-01    8.1448496902E-01
    7.6448878482E-01    7.1731846757E-01    6.7288796209E-01    6.3110484906E-01
    5.9187021949E-01    5.5507854822E-01    5.2061756658E-01    4.8836813400E-01
    4.5820410932E-01    4.2999285470E-01    4.0360243527E-01    3.7890893160E-01
    3.5579672697E-01    3.3415806009E-01    3.1389258432E-01    2.9490693462E-01
    2.7711430373E-01    2.6043402946E-01    2.4479119517E-01    2.3011624491E-01
    2.1634461499E-01    2.0341638306E-01    1.9127593557E-01    1.7987165420E-01
    1.6915562132E-01    1.5908334472E-01    1.4961350098E-01    1.4070769728E-01
    1.3233025084E-01    1.2444798525E-01    1.1703004284E-01    1.1004771211E-01
    1.0347426921E-01    9.7284832482E-02    9.1456228919E-02    8.5966871654E-02
    8.0796647335E-02    7.5926812544E-02    7.1339898321E-02    6.7019622035E-02
    6.2950805867E-02    5.9119301310E-02    5.5511919164E-02    5.2116364614E-02
    4.8921176727E-02    4.5915644064E-02    4.3089477595E-02    4.0432869045E-02
    3.7936611726E-02    3.5592059462E-02    3.3391086599E-02    3.1326050774E-02
    2.9389758286E-02    2.7575431922E-02    2.5876681050E-02    2.4287473840E-02
    2.2802111445E-02    2.1415204031E-02    2.0121653418E-02    1.8916645423E-02
    1.7793819963E-02    1.6739735258E-02    1.5748766636E-02    1.4817104209E-02
    1.3941165742E-02    1.3117583115E-02    1.2343193891E-02    1.1615028635E-02
    1.0930299017E-02    1.0286386655E-02    9.6808326594E-03    9.1113278165E-03
    8.5757033907E-03    8.0719224917E-03    7.5980719799E-03    7.1523548715E-03
    6.7330832148E-03    6.3386714069E-03    5.9676299243E-03    5.6185594399E-03
    5.2901453048E-03    4.9811523698E-03    4.6904201267E-03    4.4168581498E-03
    4.1594418180E-03    3.9172082999E-03    3.6892527879E-03    3.4747249620E-03
    3.2728256727E-03    3.0828038274E-03    2.9039534680E-03    2.7356110279E-03
    2.5771527582E-03    2.4279923109E-03    2.2875784707E-03    2.1553930260E-03
    2.0309487700E-03    1.9137876245E-03    1.8034788783E-03    1.6996175330E-03
    1.6018227508E-03    1.5097363962E-03    1.4230216671E-03    1.3413618092E-03
    1.2644589097E-03    1.1920327629E-03    1.1238198057E-03    1.0595721182E-03
    9.9905648485E-04    9.4205351208E-04    8.8835680032E-04    8.3777216583E-04
    7.9011690982E-04    7.4521913199E-04    7.0291708555E-04    6.6305857148E-04
    6.2550036935E-04    5.9010770274E-04    5.5675373700E-04    5.2531910749E-04
    4.9569147636E-04    4.6776511632E-04    4.4144051957E-04    4.1662403063E-04
    3.9322750140E-04    3.7116796722E-04    3.5036734277E-04    3.3075213641E-04
    3.1225318198E-04    2.9480538699E-04    2.7834749609E-04    2.6282186898E-04
    2.4817427162E-04    2.3435368004E-04    2.2131209573E-04    2.0900437185E-04
    1.9738804934E-04    1.8642320236E-04    1.7607229211E-04    1.6630002854E-04
    1.5707323922E-04    1.4836074490E-04    1.4013324118E-04    1.3236318591E-04
    1.2502469198E-04    1.1809342517E-04    1.1154650690E-04    1.0536242163E-04
    9.9520929030E-05    9.4002980599E-05    8.8790640989E-05    8.3867013881E-05
    7.9216172475E-05    7.4823094543E-05    7.0673601970E-05    6.6754304678E-05
    6.3052548814E-05    5.9556369043E-05    5.6254444755E-05    5.3136059986E-05
    5.0191066837E-05    4.7409852154E-05    4.4783307279E-05    4.2302800643E-05
    3.9960153008E-05    3.7747615173E-05    3.5657847956E-05    3.3683904242E-05
    3.1819212863E-05    3.0057564218E-05    2.8393096473E-05    2.6820285048E-05
    2.5333928962E-05    2.3929129382E-05    2.2601351133E-05    2.1346443397E-05
    2.0160517469E-05    1.9039877842E-05    1.7981013949E-05    1.6980593594E-05
    1.6035454996E-05    1.5142599215E-05    1.4299182789E-05    1.3502510558E-05
    1.2750028716E-05    1.2039318088E-05    1.1368087635E-05    1.0734168201E-05
    1.0135506500E-05    9.5701593355E-06    9.0362880592E-06    8.5321532658E-06
    8.0561097143E-06    7.6066014755E-06    7.1821572988E-06    6.7813861931E-06
    6.4029732143E-06    6.0456754535E-06    5.7083182182E-06    5.3897914010E-06
    5.0890460265E-06    4.8050909712E-06    4.5369898487E-06    4.2838580522E-06
    4.0448599496E-06    3.8192062222E-06    3.6061513420E-06    3.4049911806E-06
    3.2150607437E-06    3.0357320249E-06    2.8664119733E-06    2.7065405696E-06
    2.5555890044E-06    2.4130579548E-06    2.2784759535E-06    2.1513978458E-06
    2.0314033301E-06    1.9180955779E-06    1.8110999282E-06    1.7100626540E-06
    1.6146497948E-06    1.5245460543E-06    1.4394537571E-06    1.3590918638E-06
    1.2831950385E-06    1.2115127696E-06    1.1438085363E-06    1.0798590208E-06
    1.0194533764E-06    9.6239248694E-07    9.0848832243E-07    8.5756348100E-07
    8.0945018239E-07    7.6398883056E-07    7.2102776611E-07    6.8042400861E-07
    6.4204332945E-07    6.0575996221E-07    5.7145629245E-07    5.3902255208E-07
    5.0835649364E-07    4.7936303223E-07    4.5195384787E-07    4.2604693869E-07
    4.0156611878E-07    3.7844046045E-07    3.5660368920E-07    3.3599354995E-07
    3.1655117227E-07    2.9822046867E-07    2.8094760102E-07    2.6468054503E-07
    2.4936877173E-07    2.3496305143E-07    2.2141537159E-07    2.0867894859E-07
    1.9670830725E-07    1.8545940020E-07    1.7488974150E-07    1.6495853422E-07
    1.5562677777E-07    1.4685734664E-07    1.3861503747E-07    1.3086658502E-07
    1.2358064986E-07    1.1672778223E-07    1.1028036676E-07    1.0421255282E-07
    9.8500174799E-08    9.3120665932E-08    8.8052968795E-08    8.3277444867E-08
    7.8775784996E-08    7.4530922167E-08    7.0526947512E-08    6.6749030215E-08
    6.3183341702E-08    5.9816984309E-08    5.6637924479E-08    5.3634930430E-08
    5.0797514163E-08    4.8115877643E-08    4.5580862918E-08    4.3183905972E-08
    4.0916994063E-08    3.8772626306E-08    3.6743777281E-08    3.4823863433E-08
    3.3006712055E-08    3.1286532657E-08    2.9657890523E-08    2.8115682297E-08
    2.6655113420E-08    2.5271677277E-08    2.3961135913E-08    2.2719502192E-08
    2.1543023284E-08    2.0428165364E-08    1.9371599437E-08    1.8370188192E-08
    1.7420973801E-08    1.6521166594E-08    1.5668134536E-08    1.4859393442E-08
    1.4092597877E-08    1.3365532687E-08    1.2676105104E-08    1.2022337395E-08
    1.1402360002E-08    1.0814405140E-08    1.0256800824E-08    9.7279652802E-09
    9.2264017275E-09    8.7506934922E-09    8.2994994365E-09    7.8715496760E-09
    7.4656415668E-09    7.0806359425E-09    6.7154535837E-09    6.3690719033E-09
    6.0405218339E-09    5.7288849016E-09    5.4332904755E-09    5.1529131792E-09
    4.8869704550E-09    4.6347202696E-09    4.3954589526E-09    4.1685191589E-09
    3.9532679468E-09    3.7491049653E-09    3.5554607421E-09    3.3717950679E-09
    3.1975954692E-09    3.0323757653E-09    2.8756747043E-09    2.7270546725E-09
    2.5861004738E-09    2.4524181740E-09    2.3256340078E-09    2.2053933420E-09
    2.0913596953E-09    1.9832138082E-09    1.8806527621E-09    1.7833891445E-09
    1.6911502569E-09    1.6036773643E-09    1.5207249829E-09    1.4420602050E-09
    1.3674620578E-09    1.2967208957E-09    1.2296378229E-09    1.1660241464E-09
    1.1057008557E-09    1.0484981301E-09    9.9425486985E-10    9.4281825194E-10
    8.9404330812E-10    8.4779252418E-10    8.0393545962E-10    7.6234838659E-10
    7.2291394700E-10    6.8552082708E-10    6.5006344835E-10    6.1644167423E-10
    5.8456053153E-10    5.5432994603E-10    5.2566449144E-10    4.9848315114E-10
    4.7270909194E-10    4.4826944937E-10    4.2509512383E-10    4.0312058718E-10
    3.8228369906E-10    3.6252553267E-10    3.4379020933E-10    3.2602474152E-10
    3.0917888395E-10    2.9320499219E-10    2.7805788852E-10    2.6369473472E-10
    2.5007491125E-10    2.3715990274E-10    2.2491318923E-10    2.1330014310E-10
    2.0228793123E-10    1.9184542219E-10    1.8194309820E-10    1.7255297165E-10
    1.6364850589E-10    1.5520454007E-10    1.4719721793E-10    1.3960392020E-10
    1.3240320052E-10    1.2557472461E-10    1.1909921269E-10    1.1295838476E-10
    1.0713490878E-10    1.0161235150E-10    9.6375131862E-11    9.1408476772E-11
    8.6698379193E-11    8.2231558401E-11    7.7995422293E-11    7.3978031661E-11
    7.0168066305E-11    6.6554792911E-11    6.3128034592E-11    5.9878142008E-11
    5.6795965987E-11    5.3872831568E-11    5.1100513384E-11    4.8471212330E-11
    4.5977533440E-11    4.3612464911E-11    4.1369358219E-11    3.9241909268E-11
    3.7224140511E-11    3.5310384009E-11    3.3495265366E-11    3.1773688495E-11
    3.0140821182E-11    2.8592081396E-11    2.7123124308E-11    2.5729829991E-11
    2.4408291750E-11    2.3154805068E-11    2.1965857120E-11    2.0838116830E-11
    1.9768425452E-11    1.8753787632E-11    1.7791362940E-11    1.6878457839E-11
    1.6012518072E-11    1.5191121445E-11    1.4411970980E-11    1.3672888432E-11
    1.2971808136E-11    1.2306771174E-11    1.1675919848E-11    1.1077492438E-11
    1.0509818229E-11    9.9713128028E-12    9.4604735688E-12    8.9758755272E-12
    8.5161672549E-12    8.0800670959E-12    7.6663595530E-12    7.2738918629E-12
    6.9015707523E-12    6.5483593597E-12    6.2132743179E-12    5.8953829881E-12
    5.5938008359E-12    5.3076889453E-12    5.0362516595E-12    4.7787343455E-12
    4.5344212736E-12    4.3026336071E-12    4.0827274962E-12    3.8740922702E-12
    3.6761487239E-12    3.4883474922E-12    3.3101675091E-12    3.1411145467E-12
    2.9807198289E-12    2.8285387182E-12    2.6841494692E-12    2.5471520477E-12
    2.4171670095E-12    2.2938344388E-12    2.1768129403E-12    2.0657786839E-12
    1.9604244989E-12    1.8604590144E-12    1.7656058453E-12    1.6756028190E-12
    1.5902012430E-12    1.5091652103E-12    1.4322709401E-12    1.3593061530E-12
    1.2900694785E-12    1.2243698930E-12    1.1620261868E-12    1.1028664586E-12
    1.0467276360E-12    9.9345502125E-13    9.4290185978E-13    8.9492893141E-13
    8.4940416252E-13    8.0620225832E-13    7.6520435395E-13    7.2629768372E-13
    6.8937526728E-13    6.5433561213E-13    6.2108243127E-13    5.8952437559E-13
    5.5957477998E-13    5.3115142248E-13    5.0417629593E-13    4.7857539133E-13
    4.5427849237E-13    4.3121898059E-13    4.0933365049E-13    3.8856253425E-13
    3.6884873543E-13    3.5013827122E-13    3.3237992286E-13    3.1552509372E-13
    2.9952767470E-13    2.8434391656E-13    2.6993230882E-13    2.5625346484E-13
    2.4327001293E-13    2.3094649292E-13    2.1924925816E-13    2.0814638249E-13
    1.9760757207E-13    1.8760408160E-13    1.7810863503E-13    1.6909535022E-13
    1.6053966749E-13    1.5241828187E-13    1.4470907884E-13    1.3739107332E-13
    1.3044435183E-13    1.2385001761E-13    1.1759013858E-13    1.1164769793E-13
    1.0600654727E-13    1.0065136221E-13    9.5567600164E-14    9.0741460360E-14
    8.6159845892E-14    8.1810327714E-14    7.7681110485E-14    7.3761000161E-14
    7.0039373260E-14    6.6506147685E-14    6.3151755061E-14    5.9967114474E-14
    5.6943607572E-14    5.4073054924E-14    5.1347693605E-14    4.8760155922E-14
    4.6303449233E-14    4.3970936792E-14    4.1756319589E-14    3.9653619102E-14
    3.7657160950E-14    3.5761559366E-14    3.3961702478E-14    3.2252738333E-14
    3.0630061646E-14    2.9089301215E-14    2.7626307992E-14    2.6237143750E-14
    2.4918070349E-14    2.3665539525E-14    2.2476183228E-14    2.1346804433E-14
    2.0274368430E-14    1.9255994557E-14    1.8288948360E-14    1.7370634142E-14
    1.6498587903E-14    1.5670470639E-14    1.4884061979E-14    1.4137254146E-14
    1.3428046236E-14    1.2754538775E-14    1.2114928566E-14    1.1507503791E-14
    1.0930639363E-14    1.0382792526E-14    9.8624986582E-15    9.3683673144E-15
    8.8990784479E-15    8.4533788401E-15    8.0300787030E-15    7.6280484612E-15
    7.2462156919E-15    6.8835622262E-15    6.5391213937E-15    6.2119754100E-15
    5.9012528964E-15    5.6061265254E-15    5.3258107867E-15    5.0595598666E-15
    4.8066656353E-15    4.5664557361E-15    4.3382917731E-15    4.1215675891E-15
    3.9157076334E-15    3.7201654097E-15    3.5344220063E-15    3.3579846976E-15
    3.1903856191E-15    3.0311805084E-15    2.8799475109E-15    2.7362860457E-15
    2.5998157288E-15    2.4701753521E-15    2.3470219127E-15    2.2300296930E-15
    2.1188893857E-15    2.0133072655E-15    1.9130044004E-15    1.8177159044E-15
    1.7271902283E-15    1.6411884851E-15    1.5594838112E-15    1.4818607587E-15
    1.4081147195E-15    1.3380513773E-15    1.2714861890E-15    1.2082438909E-15
    1.1481580307E-15    1.0910705231E-15    1.0368312277E-15    9.8529754815E-16
    9.3633405203E-16    8.8981210974E-16    8.4560955131E-16    8.0361034130E-16
    7.6370426934E-16    7.2578665696E-16    6.8975807882E-16    6.5552409821E-16
    6.2299501597E-16    5.9208563183E-16    5.6271501823E-16    5.3480630503E-16
    5.0828647564E-16    4.8308617299E-16    4.5913951555E-16    4.3638392262E-16
    4.1475994823E-16    3.9421112377E-16    3.7468380814E-16    3.5612704589E-16
    3.3849243211E-16    3.2173398444E-16    3.0580802136E-16    2.9067304664E-16
    2.7628963973E-16    2.6262035142E-16    2.4962960506E-16    2.3728360252E-16
    2.2555023500E-16    2.1439899828E-16    2.0380091227E-16    1.9372844460E-16
    1.8415543801E-16    1.7505704148E-16    1.6640964475E-16    1.5819081612E-16
    1.5037924350E-16    1.4295467823E-16    1.3589788193E-16    1.2919057584E-16
    1.2281539285E-16    1.1675583182E-16    1.1099621427E-16    1.0552164326E-16
    1.0031796422E-16    9.5371727926E-17    9.0670155121E-17    8.6201103105E-17
    8.1953033890E-17    7.7914983965E-17    7.4076535631E-17    7.0427789688E-17
    6.6959339582E-17    6.3662246775E-17    6.0528017383E-17    5.7548579998E-17
    5.4716264568E-17    5.2023782410E-17    4.9464207148E-17    4.7030956660E-17
    4.4717775907E-17    4.2518720610E-17    4.0428141782E-17    3.8440670981E-17
    3.6551206350E-17    3.4754899326E-17    3.3047142013E-17    3.1423555215E-17
    2.9879977024E-17    2.8412452017E-17    2.7017220971E-17    2.5690711093E-17
    2.4429526755E-17    2.3230440664E-17    2.2090385501E-17    2.1006445957E-17
    1.9975851174E-17    1.8995967569E-17    1.8064292002E-17    1.7178445300E-17
    1.6336166092E-17    1.5535304958E-17    1.4773818871E-17    1.4049765905E-17
    1.3361300224E-17    1.2706667307E-17    1.2084199413E-17    1.1492311281E-17
    1.0929496027E-17    1.0394321268E-17    9.8854254172E-18    9.4015141758E-18
    8.9413571998E-18    8.5037849229E-18    8.0876855501E-18    7.6920021917E-18
    7.3157301415E-18    6.9579142966E-18    6.6176466942E-18    6.2940641817E-18
    5.9863461971E-18    5.6937126572E-18    5.4154219601E-18    5.1507690754E-18
    4.8990837371E-18    4.6597287245E-18    4.4320982248E-18    4.2156162840E-18
    4.0097353273E-18    3.8139347567E-18    3.6277196199E-18    3.4506193393E-18
    3.2821865111E-18    3.1219957585E-18    2.9696426434E-18    2.8247426349E-18
    2.6869301233E-18    2.5558574877E-18    2.4311942087E-18    2.3126260220E-18
    2.1998541195E-18    2.0925943844E-18    1.9905766673E-18    1.8935440983E-18
    1.8012524305E-18    1.7134694192E-18    1.6299742298E-18    1.5505568746E-18
    1.4750176804E-18    1.4031667782E-18    1.3348236213E-18    1.2698165265E-18
    1.2079822368E-18    1.1491655071E-18    1.0932187101E-18    1.0400014601E-18
    9.8938025846E-19    9.4122815347E-19    8.9542441855E-19    8.5185424658E-19
    8.1040845802E-19    7.7098322492E-19    7.3347980758E-19    6.9780430408E-19
    6.6386741338E-19    6.3158420847E-19    6.0087392175E-19    5.7165974103E-19
    5.4386861470E-19    5.1743106754E-19    4.9228102505E-19    4.6835564615E-19
    4.4559516510E-19    4.2394274013E-19    4.0334430996E-19    3.8374845783E-19
    3.6510628131E-19    3.4737126920E-19    3.3049918441E-19    3.1444795213E-19
    2.9917755419E-19    2.8464992811E-19    2.7082887111E-19    2.5767994935E-19
    2.4517041096E-19    2.3326910373E-19    2.2194639694E-19    2.1117410660E-19
    2.0092542479E-19    1.9117485231E-19    1.8189813445E-19    1.7307220031E-19
    1.6467510477E-19    1.5668597332E-19    1.4908494993E-19    1.4185314704E-19
    1.3497259819E-19    1.2842621319E-19    1.2219773504E-19    1.1627169934E-19
    1.1063339557E-19    1.0526883012E-19    1.0016469142E-19    9.5308316521E-20
    9.0687659420E-20    8.6291260983E-20    8.2108220254E-20    7.8128167152E-20
    7.4341236668E-20    7.0738044123E-20    6.7309661716E-20    6.4047596327E-20
    6.0943768204E-20    5.7990490828E-20    5.5180451784E-20    5.2506694433E-20
    4.9962600608E-20    4.7541874126E-20    4.5238525039E-20    4.3046854746E-20
    4.0961441793E-20    3.8977128328E-20    3.7089007303E-20    3.5292410235E-20
    3.3582895559E-20    3.1956237624E-20    3.0408416146E-20    2.8935606192E-20
    2.7534168717E-20    2.6200641471E-20    2.4931730395E-20    2.3724301471E-20
    2.2575372890E-20    2.1482107659E-20    2.0441806577E-20    1.9451901496E-20
    1.8509948962E-20    1.7613624162E-20    1.6760715131E-20    1.5949117272E-20
    1.5176828151E-20    1.4441942504E-20    1.3742647529E-20    1.3077218394E-20
    1.2444013948E-20    1.1841472663E-20    1.1268108771E-20    1.0722508564E-20
    1.0203326912E-20    9.7092839257E-21    9.2391617782E-21    8.7918017039E-21
    8.3661011260E-21    7.9610109207E-21    7.5755328325E-21    7.2087170008E-21
    6.8596596038E-21    6.5275006347E-21    6.2114217696E-21    5.9106443403E-21
    5.6244274190E-21    5.3520659821E-21    5.0928891644E-21    4.8462586099E-21
    4.6115668909E-21    4.3882360036E-21    4.1757159492E-21    3.9734833709E-21
    3.7810402594E-21    3.5979127305E-21    3.4236498510E-21    3.2578225244E-21
    3.1000224370E-21    2.9498610482E-21    2.8069686293E-21    2.6709933567E-21
    2.5416004415E-21    2.4184713024E-21    2.3013027838E-21    2.1898064067E-21
    2.0837076560E-21    1.9827453067E-21    1.8866707792E-21    1.7952475250E-21
    1.7082504462E-21    1.6254653406E-21    1.5466883718E-21    1.4717255698E-21
    1.4003923524E-21    1.3325130695E-21    1.2679205715E-21    1.2064557988E-21
    1.1479673875E-21    1.0923112987E-21    1.0393504643E-21    9.8895444766E-22
    9.4099912358E-22    8.9536637384E-22    8.5194379462E-22    8.1062442051E-22
    7.7130646250E-22    7.3389305584E-22    6.9829202195E-22    6.6441564313E-22
    6.3218044506E-22    6.0150699148E-22    5.7231969043E-22    5.4454660667E-22
    5.1811928476E-22    4.9297258197E-22    4.6904450696E-22    4.4627606714E-22
    4.2461112454E-22    4.0399625715E-22    3.8438062717E-22    3.6571585674E-22
    3.4795590868E-22    3.3105697285E-22    3.1497735891E-22    2.9967739382E-22
    2.8511932380E-22    2.7126722174E-22    2.5808689919E-22    2.4554582170E-22
    2.3361302890E-22    2.2225905894E-22    2.1145587536E-22    2.0117679819E-22
    1.9139643891E-22    1.8209063745E-22    1.7323640275E-22    1.6481185666E-22
    1.5679617979E-22    1.4916956021E-22    1.4191314501E-22    1.3500899382E-22
    1.2844003449E-22    1.2219002127E-22    1.1624349493E-22    1.1058574448E-22
    1.0520277100E-22    1.0008125350E-22    9.5208515814E-23    9.0572495380E-23
    8.6161713896E-23    8.1965248763E-23    7.7972706205E-23    7.4174195874E-23
    7.0560306389E-23    6.7122082090E-23    6.3851001101E-23    6.0738954363E-23
    5.7778225543E-23    5.4961472069E-23    5.2281707176E-23    4.9732282526E-23
    4.7306871835E-23    4.4999455459E-23    4.2804305394E-23    4.0715971168E-23
    3.8729266508E-23    3.6839256501E-23    3.5041245384E-23    3.3330765019E-23
    3.1703563909E-23    3.0155596633E-23    2.8683013875E-23    2.7282153031E-23
    2.5949529066E-23    2.4681825918E-23    2.3475888398E-23    2.2328714341E-23
    2.1237447180E-23    2.0199368935E-23    1.9211893508E-23    1.8272560251E-23
    1.7379027902E-23    1.6529068853E-23    1.5720563584E-23    1.4951495427E-23
    1.4219945640E-23    1.3524088614E-23    1.2862187359E-23    1.2232589231E-23
    1.1633721851E-23    1.1064089183E-23    1.0522267843E-23    1.0006903614E-23
    9.5167080478E-24    9.0504552826E-24    8.6069790374E-24    8.1851697019E-24
    7.7839715811E-24    7.4023802935E-24    7.0394402902E-24    6.6942424676E-24
    6.3659219117E-24    6.0536557861E-24    5.7566612595E-24    5.4741935677E-24
    5.2055441812E-24    4.9500390405E-24    4.7070368751E-24    4.4759276150E-24
    4.2561308901E-24    4.0470945710E-24    3.8482933976E-24    3.6592276906E-24
    3.4794220966E-24    3.3084244052E-24    3.1458044292E-24    2.9911529402E-24
    2.8440806401E-24    2.7042171921E-24    2.5712103133E-24    2.4447248843E-24
    2.3244421156E-24    2.2100587590E-24    2.1012863526E-24    1.9978504961E-24
    1.8994901669E-24    1.8059570793E-24    1.7170150552E-24    1.6324394354E-24
    1.5520165248E-24    1.4755430568E-24    1.4028256831E-24    1.3336804911E-24
    1.2679325508E-24    1.2054154709E-24    1.1459709836E-24    1.0894485525E-24
    1.0357049949E-24    9.8460412155E-25    9.3601639603E-25    8.8981861539E-25
    8.4589359637E-25    8.0412988250E-25    7.6442146780E-25    7.2666752994E-25
    6.9077217616E-25    6.5664420278E-25    6.2419687024E-25    5.9334768147E-25
    5.6401817529E-25    5.3613373144E-25    5.0962338264E-25    4.8441963512E-25
    4.6045829886E-25    4.3767832934E-25    4.1602167095E-25    3.9543311141E-25
    3.7586014394E-25    3.5725283528E-25    3.3956369884E-25    3.2274757490E-25
    3.0676151913E-25    2.9156469237E-25    2.7711825780E-25    2.6338528360E-25
    2.5033065038E-25    2.3792096140E-25    2.2612445829E-25    2.1491094222E-25
    2.0425169663E-25    1.9411941457E-25    1.8448812977E-25    1.7533315200E-25
    1.6663100344E-25    1.5835935944E-25    1.5049699264E-25    1.4302371907E-25
    1.3592034669E-25    1.2916862659E-25    1.2275120790E-25    1.1665159273E-25
    1.1085409451E-25    1.0534379840E-25    1.0010652375E-25    9.5128787577E-26
    9.0397770294E-26    8.5901283739E-26    8.1627739848E-26    7.7566121101E-26
    7.3705952456E-26    7.0037275313E-26    6.6550621547E-26    6.3236989515E-26
    6.0087821293E-26    5.7094981004E-26    5.4250733785E-26    5.1547726079E-26
    4.8978967224E-26    4.6537811395E-26    4.4217940596E-26    4.2013348500E-26
    3.9918325488E-26    3.7927443674E-26    3.6035543108E-26    3.4237718665E-26
    3.2529307605E-26    3.0905877447E-26    2.9363214633E-26    2.7897313932E-26
    2.6504368083E-26    2.5180757989E-26    2.3923043410E-26    2.2727954390E-26
    2.1592382642E-26    2.0513373607E-26    1.9488118893E-26    1.8513949182E-26
    1.7588327218E-26    1.6708841311E-26    1.5873199213E-26    1.5079222224E-26
    1.4324839520E-26    1.3608082822E-26    1.2927081438E-26    1.2280057371E-26
    1.1665320732E-26    1.1081265361E-26    1.0526364820E-26    9.9991683319E-27
    9.4982970592E-27    9.0224405565E-27    8.5703534484E-27    8.1408521335E-27
    7.7328117391E-27    7.3451632459E-27    6.9768907359E-27    6.6270287226E-27
    6.2946596541E-27    5.9789115868E-27    5.6789559032E-27    5.3940051523E-27
    5.1233110019E-27    4.8661623561E-27    4.6218834646E-27    4.3898321745E-27
    4.1693982562E-27    3.9600018718E-27    3.7610920169E-27    3.5721451010E-27
    3.3926635886E-27    3.2221747339E-27    3.0602293168E-27    2.9064004803E-27
    2.7602826299E-27    2.6214903881E-27    2.4896575697E-27    2.3644362298E-27
    2.2454957724E-27    2.1325220868E-27    2.0252167170E-27    1.9232960825E-27
    1.8264907564E-27    1.7345447520E-27    1.6472148501E-27    1.5642699614E-27
    1.4854905410E-27    1.4106680004E-27    1.3396041625E-27    1.2721107394E-27
    1.2080088584E-27    1.1471285771E-27    1.0893084414E-27    1.0343950596E-27
    9.8224271629E-28    9.3271297439E-28    8.8567431621E-28    8.4100179697E-28
    7.9857672785E-28    7.5828635251E-28    7.2002355374E-28    6.8368657221E-28
    6.4917874630E-28    6.1640824914E-28    5.8528784904E-28    5.5573468104E-28
    5.2767003354E-28    5.0101913451E-28    4.7571095591E-28    4.5167802805E-28
    4.2885626474E-28    4.0718478952E-28    3.8660577591E-28    3.6706429664E-28
    3.4850818043E-28    3.3088787068E-28    3.1415629515E-28    2.9826874328E-28
    2.8318274919E-28    2.6885797660E-28    2.5525611256E-28    2.4234076772E-28
    2.3007738063E-28    2.1843312417E-28    2.0737681888E-28    1.9687885172E-28
    1.8691109812E-28    1.7744684564E-28    1.6846072342E-28    1.5992863599E-28
    1.5182769977E-28    1.4413618084E-28    1.3683343749E-28    1.2989986626E-28
    1.2331685029E-28    1.1706670857E-28    1.1113264916E-28    1.0549872517E-28
    1.0014979286E-28    9.5071470140E-29    9.0250098572E-29    8.5672707411E-29
    8.1326979611E-29    7.7201217972E-29    7.3284314193E-29    6.9565719525E-29
    6.6035417243E-29    6.2683894973E-29    5.9502119537E-29    5.6481512960E-29
    5.3613930229E-29    5.0891636646E-29    4.8307287399E-29    4.5853907925E-29
    4.3524875975E-29    4.1313903065E-29    3.9215017899E-29    3.7222550277E-29
    3.5331116661E-29    3.3535604979E-29    3.1831161167E-29    3.0213175983E-29
    2.8677273410E-29    2.7219298191E-29    2.5835304904E-29    2.4521547232E-29
    2.3274468473E-29    2.2090691508E-29    2.0967009830E-29    1.9900378847E-29
    1.8887908092E-29    1.7926853177E-29    1.7014608416E-29    1.6148699782E-29
    1.5326778499E-29    1.4546614614E-29    1.3806090919E-29    1.3103197248E-29
    1.2436025207E-29    1.1802763046E-29    1.1201690649E-29    1.0631174920E-29
    1.0089665442E-29    9.5756903999E-30    9.0878524394E-30    8.6248249499E-30
    8.1853484726E-30    7.7682274709E-30    7.3723269121E-30    6.9965692636E-30
    6.6399315324E-30    6.3014426966E-30    5.9801808970E-30    5.6752709960E-30
    5.3858821798E-30    5.1112258336E-30    4.8505533196E-30    4.6031539516E-30
    4.3683530614E-30    4.1455102384E-30    3.9340175790E-30    3.7332980024E-30
    3.5428036957E-30    3.3620146503E-30    3.1904372890E-30    3.0276030659E-30
    2.8730672149E-30    2.7264075331E-30    2.5872233078E-30    2.4551341513E-30
    2.3297789930E-30    2.2108150815E-30    2.0979171177E-30    1.9907763175E-30
    1.8890995814E-30    1.7926086911E-30    1.7010395856E-30    1.6141416314E-30
    1.5316769267E-30    1.4534196573E-30    1.3791554913E-30    1.3086810129E-30
    1.2418031406E-30    1.1783386108E-30    1.1181134703E-30    1.0609626407E-30
    1.0067294304E-30    9.5526511909E-31    9.0642854577E-31    8.6008574743E-31
    8.1610957778E-31    7.7437935892E-31    7.3478055164E-31    6.9720445123E-31
    6.6154789491E-31    6.2771296790E-31    5.9560674027E-31    5.6514101045E-31
    5.3623208207E-31    5.0880051638E-31    4.8277092097E-31    4.5807173995E-31
    4.3463507177E-31    4.1239647384E-31    3.9129478613E-31    3.7127196347E-31
    3.5227292101E-31    3.3424538610E-31    3.1713974826E-31    3.0090892594E-31
    2.8550823520E-31    2.7089527827E-31    2.5702981636E-31    2.4387366274E-31
    2.3139057628E-31    2.1954616826E-31    2.0830780461E-31    1.9764451522E-31
    1.8752690933E-31    1.7792709585E-31    1.6881861033E-31    1.6017633733E-31
    1.5197644318E-31    1.4427399817E-31    1.3694817361E-31    1.2994111104E-31
    1.2322521083E-31    1.1648668248E-31    1.0984060189E-31    1.0391562429E-31
    9.8890007736E-32    9.4847190706E-32    9.3301288998E-32    9.1044042900E-32
    8.6722778906E-32    7.9221546975E-32    6.5776375263E-32    4.7970009970E-32
    2.9302252763E-32    1.2047834043E-32   -1.1352796993E-33   -6.3078281932E-33
   -7.1976774184E-33   -5.0162773607E-33   -1.2874936865E-33    8.7828180896E-34
    1.5671142650E-33    1.4775363939E-33    7.8259476599E-34   -3.0489221078E-35
   -1.5263559086E-34   -1.9085750622E-34   -1.4382700849E-34   -3.7787650458E-35
    0.0000000000E+00    0.0000000000E+00    0.0000000000E+00    0.0000000000E+00
    0.0000000000E+00    0.0000000000E+00    0.0000000000E+00    0.0000000000E+00
    0.0000000000E+00    0.0000000000E+00    0.0000000000E+00    0.0000000000E+00
    0.0000000000E+00    0.0000000000E+00    0.0000000000E+00    0.0000000000E+00
    0.0000000000E+00    0.0000000000E+00    0.0000000000E+00    0.0000000000E+00
    0.0000000000E+00    0.0000000000E+00    0.0000000000E+00    0.0000000000E+00
    0.0000000000E+00    0.0000000000E+00    0.0000000000E+00    0.0000000000E+00
    0.0000000000E+00    0.0000000000E+00    0.0000000000E+00    0.0000000000E+00
    0.0000000000E+00    0.0000000000E+00    0.0000000000E+00    0.0000000000E+00
    0.0000000000E+00    0.0000000000E+00    0.0000000000E+00    0.0000000000E+00
    0.0000000000E+00    0.0000000000E+00    0.0000000000E+00    0.0000000000E+00
    0.0000000000E+00    0.0000000000E+00    0.0000000000E+00    0.0000000000E+00
    0.0000000000E+00    0.0000000000E+00    0.0000000000E+00    0.0000000000E+00
    0.0000000000E+00    0.0000000000E+00    0.0000000000E+00    0.0000000000E+00
    0.0000000000E+00    0.0000000000E+00    0.0000000000E+00    0.0000000000E+00
    0.0000000000E+00    0.0000000000E+00    0.0000000000E+00    0.0000000000E+00
    0.0000000000E+00    0.0000000000E+00    0.0000000000E+00    0.0000000000E+00
    0.0000000000E+00    0.0000000000E+00    0.0000000000E+00    0.0000000000E+00
    0.0000000000E+00    0.0000000000E+00    0.0000000000E+00    0.0000000000E+00
    0.0000000000E+00    0.0000000000E+00    0.0000000000E+00    0.0000000000E+00
    0.0000000000E+00    0.0000000000E+00    0.0000000000E+00    0.0000000000E+00
    0.0000000000E+00    0.0000000000E+00    0.0000000000E+00    0.0000000000E+00
    0.0000000000E+00    0.0000000000E+00    0.0000000000E+00    0.0000000000E+00
    0.0000000000E+00    0.0000000000E+00    0.0000000000E+00    0.0000000000E+00
    0.0000000000E+00    0.0000000000E+00    0.0000000000E+00    0.0000000000E+00
    0.0000000000E+00    0.0000000000E+00    0.0000000000E+00    0.0000000000E+00
    0.0000000000E+00    0.0000000000E+00    0.0000000000E+00    0.0000000000E+00
    0.0000000000E+00    0.0000000000E+00    0.0000000000E+00    0.0000000000E+00
    0.0000000000E+00    0.0000000000E+00    0.0000000000E+00    0.0000000000E+00
    0.0000000000E+00    0.0000000000E+00    0.0000000000E+00    0.0000000000E+00
    0.0000000000E+00    0.0000000000E+00    0.0000000000E+00    0.0000000000E+00
    0.0000000000E+00    0.0000000000E+00    0.0000000000E+00    0.0000000000E+00
    0.0000000000E+00    0.0000000000E+00    0.0000000000E+00    0.0000000000E+00
    0.0000000000E+00    0.0000000000E+00    0.0000000000E+00    0.0000000000E+00
    0.0000000000E+00    0.0000000000E+00    0.0000000000E+00    0.0000000000E+00
    0.0000000000E+00    0.0000000000E+00    0.0000000000E+00    0.0000000000E+00
    0.0000000000E+00    0.0000000000E+00    0.0000000000E+00    0.0000000000E+00
    0.0000000000E+00    0.0000000000E+00    0.0000000000E+00    0.0000000000E+00
    0.0000000000E+00    0.0000000000E+00    0.0000000000E+00    0.0000000000E+00
    0.0000000000E+00    0.0000000000E+00    0.0000000000E+00    0.0000000000E+00
    0.0000000000E+00    0.0000000000E+00    0.0000000000E+00    0.0000000000E+00
    0.0000000000E+00    0.0000000000E+00    0.0000000000E+00    0.0000000000E+00
    0.0000000000E+00    0.0000000000E+00    0.0000000000E+00    0.0000000000E+00
    0.0000000000E+00    0.0000000000E+00    0.0000000000E+00    0.0000000000E+00
    0.0000000000E+00    0.0000000000E+00    0.0000000000E+00    0.0000000000E+00
    0.0000000000E+00    0.0000000000E+00    0.0000000000E+00    0.0000000000E+00
    0.0000000000E+00    0.0000000000E+00    0.0000000000E+00    0.0000000000E+00
    0.0000000000E+00    0.0000000000E+00    0.0000000000E+00    0.0000000000E+00
    0.0000000000E+00    0.0000000000E+00    0.0000000000E+00    0.0000000000E+00
    0.0000000000E+00    0.0000000000E+00    0.0000000000E+00    0.0000000000E+00
    0.0000000000E+00    0.0000000000E+00    0.0000000000E+00    0.0000000000E+00
    0.0000000000E+00    0.0000000000E+00    0.0000000000E+00    0.0000000000E+00
    0.0000000000E+00    0.0000000000E+00    0.0000000000E+00    0.0000000000E+00
    0.0000000000E+00    0.0000000000E+00    0.0000000000E+00    0.0000000000E+00
    0.0000000000E+00    0.0000000000E+00    0.0000000000E+00    0.0000000000E+00
    0.0000000000E+00    0.0000000000E+00    0.0000000000E+00    0.0000000000E+00
    0.0000000000E+00    0.0000000000E+00    0.0000000000E+00    0.0000000000E+00
    0.0000000000E+00    0.0000000000E+00    0.0000000000E+00    0.0000000000E+00
    0.0000000000E+00    0.0000000000E+00    0.0000000000E+00    0.0000000000E+00
    0.0000000000E+00    0.0000000000E+00    0.0000000000E+00    0.0000000000E+00
    0.0000000000E+00    0.0000000000E+00    0.0000000000E+00    0.0000000000E+00
    0.0000000000E+00    0.0000000000E+00    0.0000000000E+00    0.0000000000E+00
    0.0000000000E+00    0.0000000000E+00    0.0000000000E+00    0.0000000000E+00
    0.0000000000E+00    0.0000000000E+00    0.0000000000E+00    0.0000000000E+00
    0.0000000000E+00    0.0000000000E+00    0.0000000000E+00    0.0000000000E+00
    0.0000000000E+00    0.0000000000E+00    0.0000000000E+00    0.0000000000E+00
    0.0000000000E+00    0.0000000000E+00    0.0000000000E+00    0.0000000000E+00
    0.0000000000E+00    0.0000000000E+00    0.0000000000E+00    0.0000000000E+00
    0.0000000000E+00    0.0000000000E+00    0.0000000000E+00    0.0000000000E+00
    0.0000000000E+00    0.0000000000E+00    0.0000000000E+00    0.0000000000E+00
    0.0000000000E+00    0.0000000000E+00    0.0000000000E+00    0.0000000000E+00
    0.0000000000E+00    0.0000000000E+00    0.0000000000E+00    0.0000000000E+00
    0.0000000000E+00    0.0000000000E+00    0.0000000000E+00    0.0000000000E+00
    0.0000000000E+00    0.0000000000E+00    0.0000000000E+00    0.0000000000E+00
    0.0000000000E+00    0.0000000000E+00    0.0000000000E+00    0.0000000000E+00
    0.0000000000E+00    0.0000000000E+00    0.0000000000E+00    0.0000000000E+00
    0.0000000000E+00    0.0000000000E+00    0.0000000000E+00    0.0000000000E+00
    0.0000000000E+00    0.0000000000E+00    0.0000000000E+00    0.0000000000E+00
    0.0000000000E+00    0.0000000000E+00    0.0000000000E+00    0.0000000000E+00
    0.0000000000E+00    0.0000000000E+00    0.0000000000E+00    0.0000000000E+00
    0.0000000000E+00    0.0000000000E+00    0.0000000000E+00    0.0000000000E+00
    0.0000000000E+00    0.0000000000E+00    0.0000000000E+00    0.0000000000E+00
    0.0000000000E+00    0.0000000000E+00    0.0000000000E+00    0.0000000000E+00
    0.0000000000E+00    0.0000000000E+00    0.0000000000E+00    0.0000000000E+00
    0.0000000000E+00    0.0000000000E+00    0.0000000000E+00    0.0000000000E+00
    0.0000000000E+00    0.0000000000E+00    0.0000000000E+00    0.0000000000E+00
    0.0000000000E+00    0.0000000000E+00    0.0000000000E+00    0.0000000000E+00
    0.0000000000E+00    0.0000000000E+00    0.0000000000E+00    0.0000000000E+00
    0.0000000000E+00    0.0000000000E+00    0.0000000000E+00    0.0000000000E+00
    0.0000000000E+00    0.0000000000E+00    0.0000000000E+00    0.0000000000E+00
    0.0000000000E+00    0.0000000000E+00    0.0000000000E+00    0.0000000000E+00
    0.0000000000E+00    0.0000000000E+00    0.0000000000E+00    0.0000000000E+00
    0.0000000000E+00    0.0000000000E+00    0.0000000000E+00    0.0000000000E+00
    0.0000000000E+00    0.0000000000E+00    0.0000000000E+00    0.0000000000E+00
    0.0000000000E+00    0.0000000000E+00    0.0000000000E+00    0.0000000000E+00
    0.0000000000E+00    0.0000000000E+00    0.0000000000E+00    0.0000000000E+00
    0.0000000000E+00    0.0000000000E+00    0.0000000000E+00    0.0000000000E+00
    0.0000000000E+00    0.0000000000E+00    0.0000000000E+00    0.0000000000E+00
    0.0000000000E+00    0.0000000000E+00    0.0000000000E+00    0.0000000000E+00
    0.0000000000E+00    0.0000000000E+00    0.0000000000E+00    0.0000000000E+00
    0.0000000000E+00    0.0000000000E+00    0.0000000000E+00    0.0000000000E+00
    0.0000000000E+00    0.0000000000E+00    0.0000000000E+00    0.0000000000E+00
    0.0000000000E+00    0.0000000000E+00    0.0000000000E+00    0.0000000000E+00
    0.0000000000E+00    0.0000000000E+00    0.0000000000E+00    0.0000000000E+00
    0.0000000000E+00    0.0000000000E+00    0.0000000000E+00    0.0000000000E+00
    0.0000000000E+00    0.0000000000E+00    0.0000000000E+00    0.0000000000E+00
    0.0000000000E+00    0.0000000000E+00    0.0000000000E+00    0.0000000000E+00
    0.0000000000E+00    0.0000000000E+00    0.0000000000E+00    0.0000000000E+00
    0.0000000000E+00    0.0000000000E+00    0.0000000000E+00    0.0000000000E+00
 </PP_TAUMOD>
 <PP_TAUATOM type="real"  size="1940" columns="4">
    3.8341955706E-03    3.9077475195E-03    4.1284392675E-03    4.4963774787E-03
    5.0117358174E-03    5.6747488794E-03    6.4857037372E-03    7.4449291797E-03
    8.5527827304E-03    9.8096355444E-03    1.1215855302E-02    1.2771787233E-02
    1.4477733423E-02    1.6333930570E-02    1.8340526364E-02    2.0497554697E-02
    2.2804909899E-02    2.5262320220E-02    2.7869320800E-02    3.0625226344E-02
    3.3529103764E-02    3.6579745030E-02    3.9775640494E-02    4.3114952933E-02
    4.6595492575E-02    5.0214693375E-02    5.3969590770E-02    5.7856801189E-02
    6.1872503530E-02    6.6012422867E-02    7.0271816568E-02    7.4645463062E-02
    7.9127653424E-02    8.3712185957E-02    8.8392363917E-02    9.3160996518E-02
    9.8010403320E-02    1.0293242207E-01    1.0791842009E-01    1.1295930917E-01
    1.1804556409E-01    1.2316724455E-01    1.2831402070E-01    1.3347520199E-01
    1.3863976928E-01    1.4379641011E-01    1.4893355695E-01    1.5403942820E-01
    1.5910207177E-01    1.6410941091E-01    1.6904929217E-01    1.7390953505E-01
    1.7867798316E-01    1.8334255648E-01    1.8789130448E-01    1.9231245963E-01
    1.9659449110E-01    2.0072615822E-01    2.0469656330E-01    2.0849520357E-01
    2.1211202177E-01    2.1553745515E-01    2.1876248248E-01    2.2177866878E-01
    2.2457820743E-01    2.2715395946E-01    2.2949948957E-01    2.3160909893E-01
    2.3347785416E-01    2.3510161269E-01    2.3647704398E-01    2.3760164670E-01
    2.3847376163E-01    2.3909258032E-01    2.3945814922E-01    2.3957136961E-01
    2.3943399295E-01    2.3904861208E-01    2.3841864794E-01    2.3754833225E-01
    2.3644268608E-01    2.3510749448E-01    2.3354927742E-01    2.3177525715E-01
    2.2979332224E-01    2.2761198857E-01    2.2524035743E-01    2.2268807110E-01
    2.1996526613E-01    2.1708252468E-01    2.1405082407E-01    2.1088148510E-01
    2.0758611919E-01    2.0417657484E-01    2.0066488362E-01    1.9706320609E-01
    1.9338377782E-01    1.8963885600E-01    1.8584066673E-01    1.8200135347E-01
    1.7813292670E-01    1.7424721526E-01    1.7035581948E-01    1.6647006635E-01
    1.6260096695E-01    1.5875917633E-01    1.5495495598E-01    1.5119813914E-01
    1.4749809885E-01    1.4386371917E-01    1.4030336938E-01    1.3682488136E-01
    1.3343553019E-01    1.3014201793E-01    1.2695046071E-01    1.2386637894E-01
    1.2089469078E-01    1.1803970867E-01    1.1530513901E-01    1.1269408471E-01
    1.1020905067E-01    1.0785195206E-01    1.0562412506E-01    1.0352634031E-01
    1.0155881848E-01    9.9721248142E-02    9.8012805560E-02    9.6432176362E-02
    9.4977578803E-02    9.3646788505E-02    9.2437164271E-02    9.1345674257E-02
    9.0368928455E-02    8.9503208383E-02    8.8744494598E-02    8.8088495436E-02
    8.7530676481E-02    8.7066290330E-02    8.6690406271E-02    8.6397939625E-02
    8.6183680519E-02    8.6042321940E-02    8.5968486942E-02    8.5956754922E-02
    8.6001686879E-02    8.6097849610E-02    8.6239838839E-02    8.6422301172E-02
    8.6639954716E-02    8.6887608337E-02    8.7160179527E-02    8.7452710842E-02
    8.7760384886E-02    8.8078537813E-02    8.8402671357E-02    8.8728463387E-02
    8.9051777007E-02    8.9368668224E-02    8.9675392222E-02    8.9968408278E-02
    9.0244383383E-02    9.0500194603E-02    9.0732930262E-02    9.0939890000E-02
    9.1118583777E-02    9.1266729902E-02    9.1382252155E-02    9.1463276085E-02
    9.1508124554E-02    9.1515312615E-02    9.1483541799E-02    9.1411693883E-02
    9.1298824223E-02    9.1144154728E-02    9.0947066536E-02    9.0707092480E-02
    9.0423909387E-02    9.0097330214E-02    8.9727296199E-02    8.9313869112E-02
    8.8857223604E-02    8.8357670440E-02    8.7815905829E-02    8.7232885317E-02
    8.6609627567E-02    8.5947212100E-02    8.5246771525E-02    8.4509485579E-02
    8.3736575698E-02    8.2929300098E-02    8.2088949317E-02    8.1216842196E-02
    8.0314322246E-02    7.9382754369E-02    7.8423518169E-02    7.7438009402E-02
    7.6428869008E-02    7.5407803368E-02    7.4376881830E-02    7.3337609068E-02
    7.2291218389E-02    7.1238927592E-02    7.0181908793E-02    6.9121288092E-02
    6.8058145733E-02    6.6993516406E-02    6.5928389679E-02    6.4863710522E-02
    6.3800380050E-02    6.2739255864E-02    6.1681153316E-02    6.0626846141E-02
    5.9577067358E-02    5.8532510247E-02    5.7493829338E-02    5.6461641446E-02
    5.5436526716E-02    5.4419029690E-02    5.3409660397E-02    5.2408895440E-02
    5.1417179097E-02    5.0434924413E-02    4.9462514298E-02    4.8500302612E-02
    4.7548615243E-02    4.6607751175E-02    4.5677983537E-02    4.4759560637E-02
    4.3852706981E-02    4.2957624266E-02    4.2074492361E-02    4.1203470251E-02
    4.0344696974E-02    3.9498292520E-02    3.8664358714E-02    3.7842980066E-02
    3.7034224601E-02    3.6238144660E-02    3.5454777670E-02    3.4684146896E-02
    3.3926262119E-02    3.3181120775E-02    3.2448707214E-02    3.1728995223E-02
    3.1021947502E-02    3.0327516483E-02    2.9645644896E-02    2.8976266301E-02
    2.8319305599E-02    2.7674679510E-02    2.7042297030E-02    2.6422059863E-02
    2.5813862829E-02    2.5217594254E-02    2.4633136336E-02    2.4060365488E-02
    2.3499152672E-02    2.2949363710E-02    2.2410859585E-02    2.1883496725E-02
    2.1367127291E-02    2.0861599442E-02    2.0366757617E-02    1.9882442804E-02
    1.9408492826E-02    1.8944742633E-02    1.8491024607E-02    1.8047168889E-02
    1.7613003732E-02    1.7188355867E-02    1.6773050910E-02    1.6366913791E-02
    1.5969769206E-02    1.5581442099E-02    1.5201758161E-02    1.4830544338E-02
    1.4467629346E-02    1.4112844174E-02    1.3766022565E-02    1.3427001467E-02
    1.3095621430E-02    1.2771726944E-02    1.2455166707E-02    1.2145793799E-02
    1.1843465781E-02    1.1548044684E-02    1.1259396920E-02    1.0977393087E-02
    1.0701907699E-02    1.0432818836E-02    1.0170007729E-02    9.9133582927E-03
    9.6627566202E-03    9.4180904532E-03    9.1792486421E-03    8.9461206110E-03
    8.7185958438E-03    8.4965634050E-03    8.2799115139E-03    8.0685271892E-03
    7.8622959835E-03    7.6611018296E-03    7.4648270213E-03    7.2733523461E-03
    7.0865574109E-03    6.9043211058E-03    6.7265222942E-03    6.5530409670E-03
    6.3837587274E-03    6.2185589460E-03    6.0573384299E-03    5.9000156225E-03
    5.7465174527E-03    5.5967704550E-03    5.4507010839E-03    5.3082360340E-03
    5.1693022934E-03    5.0338272368E-03    4.9017387211E-03    4.7729651635E-03
    4.6474356147E-03    4.5250798232E-03    4.4058282931E-03    4.2896123351E-03
    4.1763641115E-03    4.0660166756E-03    3.9585040054E-03    3.8537610335E-03
    3.7517236711E-03    3.6523288299E-03    3.5555144379E-03    3.4612194543E-03
    3.3693838790E-03    3.2799487611E-03    3.1928562034E-03    3.1080493655E-03
    3.0254724639E-03    2.9450707711E-03    2.8667906118E-03    2.7905793586E-03
    2.7163854250E-03    2.6441582584E-03    2.5738483305E-03    2.5054071275E-03
    2.4387871394E-03    2.3739418474E-03    2.3108257112E-03    2.2493941559E-03
    2.1896035570E-03    2.1314112258E-03    2.0747753936E-03    2.0196551956E-03
    1.9660106543E-03    1.9138026620E-03    1.8629929630E-03    1.8135441354E-03
    1.7654195719E-03    1.7185834607E-03    1.6730007651E-03    1.6286372030E-03
    1.5854592253E-03    1.5434339931E-03    1.5025293537E-03    1.4627138227E-03
    1.4239565545E-03    1.3862272769E-03    1.3494963058E-03    1.3137347054E-03
    1.2789137791E-03    1.2450039835E-03    1.2119750319E-03    1.1797971474E-03
    1.1484417126E-03    1.1178816058E-03    1.0880915109E-03    1.0590482389E-03
    1.0307310340E-03    1.0031218390E-03    9.7620549682E-04    9.4996985785E-04
    9.2440576322E-04    8.9950687874E-04    8.7526936399E-04    8.5169137970E-04
    8.2877245718E-04    8.0651277501E-04    7.8491240419E-04    7.6397059003E-04
    7.4368513381E-04    7.2405192215E-04    7.0506463093E-04    6.8671460598E-04
    6.6899090351E-04    6.5188045981E-04    6.3536835259E-04    6.1943811713E-04
    6.0407208411E-04    5.8925171344E-04    5.7495790580E-04    5.6117128060E-04
    5.4787241475E-04    5.3504204099E-04    5.2266120739E-04    5.1071140140E-04
    4.9917464288E-04    4.8803355044E-04    4.7727138585E-04    4.6687208032E-04
    4.5682024649E-04    4.4710117916E-04    4.3770084744E-04    4.2860588038E-04
    4.1980354796E-04    4.1128173881E-04    4.0302893574E-04    3.9503419001E-04
    3.8728709498E-04    3.7977775972E-04    3.7249678280E-04    3.6543522681E-04
    3.5858459350E-04    3.5193679996E-04    3.4548415572E-04    3.3921934095E-04
    3.3313538571E-04    3.2722565032E-04    3.2148380670E-04    3.1590382088E-04
    3.1047993635E-04    3.0520665856E-04    3.0007874016E-04    2.9509116722E-04
    2.9023914627E-04    2.8551809208E-04    2.8092361621E-04    2.7645151626E-04
    2.7209776578E-04    2.6785850474E-04    2.6373003067E-04    2.5970879027E-04
    2.5579137157E-04    2.5197449654E-04    2.4825501415E-04    2.4462989388E-04
    2.4109621960E-04    2.3765118383E-04    2.3429208229E-04    2.3101630890E-04
    2.2782135094E-04    2.2470478460E-04    2.2166427075E-04    2.1869755097E-04
    2.1580244381E-04    2.1297684129E-04    2.1021870560E-04    2.0752606594E-04
    2.0489701568E-04    2.0232970950E-04    1.9982236087E-04    1.9737323956E-04
    1.9498066935E-04    1.9264302585E-04    1.9035873444E-04    1.8812626832E-04
    1.8594414674E-04    1.8381093320E-04    1.8172523384E-04    1.7968569593E-04
    1.7769100635E-04    1.7573989025E-04    1.7383110971E-04    1.7196346250E-04
    1.7013578090E-04    1.6834693059E-04    1.6659580953E-04    1.6488134700E-04
    1.6320250257E-04    1.6155826524E-04    1.5994765248E-04    1.5836970944E-04
    1.5682350809E-04    1.5530814649E-04    1.5382274800E-04    1.5236646059E-04
    1.5093845614E-04    1.4953792975E-04    1.4816409916E-04    1.4681620407E-04
    1.4549350557E-04    1.4419528555E-04    1.4292084618E-04    1.4166950931E-04
    1.4044061599E-04    1.3923352594E-04    1.3804761706E-04    1.3688228498E-04
    1.3573694253E-04    1.3461101934E-04    1.3350396141E-04    1.3241523063E-04
    1.3134430438E-04    1.3029067516E-04    1.2925385015E-04    1.2823335084E-04
    1.2722871267E-04    1.2623948463E-04    1.2526522893E-04    1.2430552062E-04
    1.2335994731E-04    1.2242810875E-04    1.2150961659E-04    1.2060409401E-04
    1.1971117542E-04    1.1883050620E-04    1.1796174234E-04    1.1710455020E-04
    1.1625860621E-04    1.1542359660E-04    1.1459921715E-04    1.1378517290E-04
    1.1298117793E-04    1.1218695507E-04    1.1140223570E-04    1.1062675948E-04
    1.0986027416E-04    1.0910253532E-04    1.0835330614E-04    1.0761235726E-04
    1.0687946647E-04    1.0615441860E-04    1.0543700525E-04    1.0472702464E-04
    1.0402428141E-04    1.0332858645E-04    1.0263975667E-04    1.0195761492E-04
    1.0128198970E-04    1.0061271512E-04    9.9949630641E-05    9.9292580963E-05
    9.8641415869E-05    9.7995990071E-05    9.7356163064E-05    9.6721798990E-05
    9.6092766494E-05    9.5468938597E-05    9.4850192559E-05    9.4236409761E-05
    9.3627475570E-05    9.3023279231E-05    9.2423713742E-05    9.1828675741E-05
    9.1238065399E-05    9.0651786309E-05    9.0069745385E-05    8.9491852754E-05
    8.8918021661E-05    8.8348168373E-05    8.7782212083E-05    8.7220074820E-05
    8.6661681359E-05    8.6106959136E-05    8.5555838164E-05    8.5008250950E-05
    8.4464132418E-05    8.3923419828E-05    8.3386052707E-05    8.2851972769E-05
    8.2321123849E-05    8.1793451835E-05    8.1268904597E-05    8.0747431922E-05
    8.0228985457E-05    7.9713518641E-05    7.9200986648E-05    7.8691346328E-05
    7.8184556154E-05    7.7680576162E-05    7.7179367903E-05    7.6680894389E-05
    7.6185120041E-05    7.5692010646E-05    7.5201533304E-05    7.4713656386E-05
    7.4228349486E-05    7.3745583383E-05    7.3265329994E-05    7.2787562336E-05
    7.2312254485E-05    7.1839381541E-05    7.1368919586E-05    7.0900845651E-05
    7.0435137683E-05    6.9971774506E-05    6.9510735791E-05    6.9052002024E-05
    6.8595554477E-05    6.8141375173E-05    6.7689446862E-05    6.7239752990E-05
    6.6792277673E-05    6.6347005669E-05    6.5903922355E-05    6.5463013699E-05
    6.5024266238E-05    6.4587667056E-05    6.4153203758E-05    6.3720864449E-05
    6.3290637716E-05    6.2862512604E-05    6.2436478597E-05    6.2012525600E-05
    6.1590643919E-05    6.1170824245E-05    6.0753057635E-05    6.0337335494E-05
    5.9923649563E-05    5.9511991898E-05    5.9102354859E-05    5.8694731094E-05
    5.8289113524E-05    5.7885495329E-05    5.7483869939E-05    5.7084231014E-05
    5.6686572438E-05    5.6290888304E-05    5.5897172904E-05    5.5505420716E-05
    5.5115626396E-05    5.4727784764E-05    5.4341890798E-05    5.3957939619E-05
    5.3575926494E-05    5.3195846852E-05    5.2817696128E-05    5.2441469753E-05
    5.2067163905E-05    5.1694775209E-05    5.1324298952E-05    5.0955729794E-05
    5.0589063977E-05    5.0224298497E-05    4.9861429604E-05    4.9500453352E-05
    4.9141366068E-05    4.8784164127E-05    4.8428843912E-05    4.8075401846E-05
    4.7723834384E-05    4.7374138005E-05    4.7026309207E-05    4.6680344507E-05
    4.6336240432E-05    4.5993993519E-05    4.5653600309E-05    4.5315057344E-05
    4.4978361163E-05    4.4643508301E-05    4.4310495284E-05    4.3979318627E-05
    4.3649974829E-05    4.3322460374E-05    4.2996771726E-05    4.2672905328E-05
    4.2350857598E-05    4.2030624930E-05    4.1712203688E-05    4.1395590207E-05
    4.1080780791E-05    4.0767771710E-05    4.0456559201E-05    4.0147139463E-05
    3.9839508657E-05    3.9533662908E-05    3.9229598299E-05    3.8927310874E-05
    3.8626796631E-05    3.8328051531E-05    3.8031071487E-05    3.7735852369E-05
    3.7442390002E-05    3.7150680165E-05    3.6860718592E-05    3.6572500969E-05
    3.6286022936E-05    3.6001280084E-05    3.5718267957E-05    3.5436982053E-05
    3.5157417819E-05    3.4879570655E-05    3.4603435913E-05    3.4329008896E-05
    3.4056284859E-05    3.3785259009E-05    3.3515926503E-05    3.3248282453E-05
    3.2982321920E-05    3.2718039920E-05    3.2455431419E-05    3.2194491338E-05
    3.1935214550E-05    3.1677595882E-05    3.1421630113E-05    3.1167311980E-05
    3.0914636171E-05    3.0663597332E-05    3.0414190062E-05    3.0166408918E-05
    2.9920248412E-05    2.9675703016E-05    2.9432767155E-05    2.9191435218E-05
    2.8951701548E-05    2.8713560450E-05    2.8477006189E-05    2.8242032989E-05
    2.8008635038E-05    2.7776806484E-05    2.7546541438E-05    2.7317833976E-05
    2.7090678135E-05    2.6865067921E-05    2.6640997301E-05    2.6418460211E-05
    2.6197450554E-05    2.5977962200E-05    2.5759988987E-05    2.5543524723E-05
    2.5328563185E-05    2.5115098122E-05    2.4903123253E-05    2.4692632270E-05
    2.4483618838E-05    2.4276076596E-05    2.4069999155E-05    2.3865380106E-05
    2.3662213011E-05    2.3460491411E-05    2.3260208826E-05    2.3061358752E-05
    2.2863934665E-05    2.2667930020E-05    2.2473338254E-05    2.2280152785E-05
    2.2088367012E-05    2.1897974317E-05    2.1708968068E-05    2.1521341614E-05
    2.1335088291E-05    2.1150201420E-05    2.0966674310E-05    2.0784500256E-05
    2.0603672541E-05    2.0424184438E-05    2.0246029207E-05    2.0069200102E-05
    1.9893690363E-05    1.9719493226E-05    1.9546601918E-05    1.9375009656E-05
    1.9204709656E-05    1.9035695124E-05    1.8867959263E-05    1.8701495270E-05
    1.8536296341E-05    1.8372355667E-05    1.8209666437E-05    1.8048221838E-05
    1.7888015058E-05    1.7729039280E-05    1.7571287692E-05    1.7414753481E-05
    1.7259429834E-05    1.7105309941E-05    1.6952386995E-05    1.6800654192E-05
    1.6650104731E-05    1.6500731816E-05    1.6352528655E-05    1.6205488463E-05
    1.6059604459E-05    1.5914869869E-05    1.5771277927E-05    1.5628821874E-05
    1.5487494958E-05    1.5347290437E-05    1.5208201577E-05    1.5070221654E-05
    1.4933343955E-05    1.4797561776E-05    1.4662868424E-05    1.4529257219E-05
    1.4396721490E-05    1.4265254582E-05    1.4134849849E-05    1.4005500662E-05
    1.3877200402E-05    1.3749942467E-05    1.3623720267E-05    1.3498527230E-05
    1.3374356795E-05    1.3251202421E-05    1.3129057579E-05    1.3007915760E-05
    1.2887770469E-05    1.2768615230E-05    1.2650443584E-05    1.2533249088E-05
    1.2417025320E-05    1.2301765874E-05    1.2187464365E-05    1.2074114425E-05
    1.1961709708E-05    1.1850243885E-05    1.1739710649E-05    1.1630103711E-05
    1.1521416806E-05    1.1413643688E-05    1.1306778130E-05    1.1200813931E-05
    1.1095744909E-05    1.0991564903E-05    1.0888267776E-05    1.0785847413E-05
    1.0684297721E-05    1.0583612630E-05    1.0483786094E-05    1.0384812090E-05
    1.0286684617E-05    1.0189397700E-05    1.0092945386E-05    9.9973217465E-06
    9.9025208785E-06    9.8085369022E-06    9.7153639630E-06    9.6229962307E-06
    9.5314279004E-06    9.4406531921E-06    9.3506663513E-06    9.2614616487E-06
    9.1730333807E-06    9.0853758693E-06    8.9984834624E-06    8.9123505338E-06
    8.8269714835E-06    8.7423407375E-06    8.6584527483E-06    8.5753019947E-06
    8.4928829821E-06    8.4111902422E-06    8.3302183340E-06    8.2499618427E-06
    8.1704153808E-06    8.0915735875E-06    8.0134311291E-06    7.9359826992E-06
    7.8592230183E-06    7.7831468342E-06    7.7077489222E-06    7.6330240847E-06
    7.5589671517E-06    7.4855729804E-06    7.4128364558E-06    7.3407524902E-06
    7.2693160236E-06    7.1985220235E-06    7.1283654852E-06    7.0588414315E-06
    6.9899449128E-06    6.9216710075E-06    6.8540148214E-06    6.7869714882E-06
    6.7205361693E-06    6.6547040537E-06    6.5894703584E-06    6.5248303279E-06
    6.4607792345E-06    6.3973123783E-06    6.3344250871E-06    6.2721127162E-06
    6.2103706489E-06    6.1491942959E-06    6.0885790957E-06    6.0285205143E-06
    5.9690140455E-06    5.9100552105E-06    5.8516395579E-06    5.7937626642E-06
    5.7364201329E-06    5.6796075953E-06    5.6233207098E-06    5.5675551623E-06
    5.5123066660E-06    5.4575709612E-06    5.4033438156E-06    5.3496210237E-06
    5.2963984075E-06    5.2436718158E-06    5.1914371243E-06    5.1396902357E-06
    5.0884270796E-06    5.0376436122E-06    4.9873358167E-06    4.9374997027E-06
    4.8881313064E-06    4.8392266907E-06    4.7907819446E-06    4.7427931837E-06
    4.6952565498E-06    4.6481682110E-06    4.6015243613E-06    4.5553212210E-06
    4.5095550362E-06    4.4642220788E-06    4.4193186467E-06    4.3748410634E-06
    4.3307856779E-06    4.2871488650E-06    4.2439270246E-06    4.2011165821E-06
    4.1587139883E-06    4.1167157189E-06    4.0751182748E-06    4.0339181819E-06
    3.9931119907E-06    3.9526962769E-06    3.9126676406E-06    3.8730227064E-06
    3.8337581235E-06    3.7948705655E-06    3.7563567303E-06    3.7182133397E-06
    3.6804371399E-06    3.6430249007E-06    3.6059734161E-06    3.5692795036E-06
    3.5329400045E-06    3.4969517834E-06    3.4613117285E-06    3.4260167512E-06
    3.3910637863E-06    3.3564497914E-06    3.3221717473E-06    3.2882266576E-06
    3.2546115485E-06    3.2213234691E-06    3.1883594910E-06    3.1557167079E-06
    3.1233922361E-06    3.0913832142E-06    3.0596868024E-06    3.0283001834E-06
    2.9972205613E-06    2.9664451622E-06    2.9359712338E-06    2.9057960452E-06
    2.8759168869E-06    2.8463310706E-06    2.8170359293E-06    2.7880288170E-06
    2.7593071086E-06    2.7308681997E-06    2.7027095066E-06    2.6748284664E-06
    2.6472225363E-06    2.6198891942E-06    2.5928259378E-06    2.5660302852E-06
    2.5394997744E-06    2.5132319632E-06    2.4872244293E-06    2.4614747697E-06
    2.4359806014E-06    2.4107395602E-06    2.3857493017E-06    2.3610075004E-06
    2.3365118498E-06    2.3122600624E-06    2.2882498695E-06    2.2644790212E-06
    2.2409452858E-06    2.2176464506E-06    2.1945803206E-06    2.1717447197E-06
    2.1491374893E-06    2.1267564891E-06    2.1045995967E-06    2.0826647073E-06
    2.0609497338E-06    2.0394526066E-06    2.0181712737E-06    1.9971037000E-06
    1.9762478680E-06    1.9556017770E-06    1.9351634434E-06    1.9149309002E-06
    1.8949021975E-06    1.8750754017E-06    1.8554485958E-06    1.8360198792E-06
    1.8167873675E-06    1.7977491926E-06    1.7789035024E-06    1.7602484606E-06
    1.7417822469E-06    1.7235030566E-06    1.7054091008E-06    1.6874986058E-06
    1.6697698135E-06    1.6522209811E-06    1.6348503808E-06    1.6176562999E-06
    1.6006370409E-06    1.5837909208E-06    1.5671162716E-06    1.5506114397E-06
    1.5342747863E-06    1.5181046867E-06    1.5020995309E-06    1.4862577227E-06
    1.4705776803E-06    1.4550578359E-06    1.4396966353E-06    1.4244925384E-06
    1.4094440188E-06    1.3945495634E-06    1.3798076729E-06    1.3652168611E-06
    1.3507756554E-06    1.3364825962E-06    1.3223362370E-06    1.3083351442E-06
    1.2944778973E-06    1.2807630884E-06    1.2671893224E-06    1.2537552167E-06
    1.2404594014E-06    1.2273005186E-06    1.2142772232E-06    1.2013881818E-06
    1.1886320736E-06    1.1760075895E-06    1.1635134324E-06    1.1511483170E-06
    1.1389109699E-06    1.1268001290E-06    1.1148145442E-06    1.1029529764E-06
    1.0912141983E-06    1.0795969936E-06    1.0681001572E-06    1.0567224952E-06
    1.0454628247E-06    1.0343199737E-06    1.0232927810E-06    1.0123800961E-06
    1.0015807794E-06    9.9089370146E-07    9.8031774372E-07    9.6985179782E-07
    9.5949476576E-07    9.4924555977E-07    9.3910310220E-07    9.2906632551E-07
    9.1913417210E-07    9.0930559429E-07    8.9957955419E-07    8.8995502368E-07
    8.8043098427E-07    8.7100642704E-07    8.6168035257E-07    8.5245177085E-07
    8.4331970121E-07    8.3428317223E-07    8.2534122168E-07    8.1649289640E-07
    8.0773725230E-07    7.9907335420E-07    7.9050027580E-07    7.8201709960E-07
    7.7362291684E-07    7.6531682736E-07    7.5709793963E-07    7.4896537058E-07
    7.4091824557E-07    7.3295569834E-07    7.2507687089E-07    7.1728091343E-07
    7.0956698433E-07    7.0193425002E-07    6.9438188491E-07    6.8690907138E-07
    6.7951499965E-07    6.7219886772E-07    6.6495988134E-07    6.5779725392E-07
    6.5071020643E-07    6.4369796740E-07    6.3675977279E-07    6.2989486597E-07
    6.2310249764E-07    6.1638192575E-07    6.0973241546E-07    6.0315323907E-07
    5.9664367592E-07    5.9020301240E-07    5.8383054183E-07    5.7752556441E-07
    5.7128738717E-07    5.6511532390E-07    5.5900869511E-07    5.5296682791E-07
    5.4698905605E-07    5.4107471976E-07    5.3522316575E-07    5.2943374714E-07
    5.2370582339E-07    5.1803876026E-07    5.1243192975E-07    5.0688471003E-07
    5.0139648539E-07    4.9596664620E-07    4.9059458882E-07    4.8527971559E-07
    4.8002143474E-07    4.7481916035E-07    4.6967231230E-07    4.6458031622E-07
    4.5954260341E-07    4.5455861082E-07    4.4962778098E-07    4.4474956196E-07
    4.3992340732E-07    4.3514877604E-07    4.3042513248E-07    4.2575194635E-07
    4.2112869263E-07    4.1655485155E-07    4.1202990850E-07    4.0755335403E-07
    4.0312468378E-07    3.9874339842E-07    3.9440900362E-07    3.9012101001E-07
    3.8587893310E-07    3.8168229329E-07    3.7753061577E-07    3.7342343049E-07
    3.6936027215E-07    3.6534068009E-07    3.6136419831E-07    3.5743037540E-07
    3.5353876448E-07    3.4968892318E-07    3.4588041361E-07    3.4211280228E-07
    3.3838566007E-07    3.3469856221E-07    3.3105108822E-07    3.2744282188E-07
    3.2387335118E-07    3.2034226827E-07    3.1684916944E-07    3.1339365510E-07
    3.0997532968E-07    3.0659380164E-07    3.0324868341E-07    2.9993959138E-07
    2.9666614583E-07    2.9342797089E-07    2.9022469454E-07    2.8705594853E-07
    2.8392136840E-07    2.8082059336E-07    2.7775326634E-07    2.7471903390E-07
    2.7171754620E-07    2.6874845701E-07    2.6581142362E-07    2.6290610682E-07
    2.6003217088E-07    2.5718928353E-07    2.5437711589E-07    2.5159534244E-07
    2.4884364102E-07    2.4612169277E-07    2.4342918211E-07    2.4076579671E-07
    2.3813122744E-07    2.3552516835E-07    2.3294731665E-07    2.3039737267E-07
    2.2787503981E-07    2.2538002454E-07    2.2291203637E-07    2.2047078780E-07
    2.1805599428E-07    2.1566737423E-07    2.1330464896E-07    2.1096754267E-07
    2.0865578242E-07    2.0636909807E-07    2.0410722232E-07    2.0186989059E-07
    1.9965684109E-07    1.9746781472E-07    1.9530255506E-07    1.9316080838E-07
    1.9104232356E-07    1.8894685210E-07    1.8687414809E-07    1.8482396816E-07
    1.8279607150E-07    1.8079021977E-07    1.7880617715E-07    1.7684371025E-07
    1.7490258812E-07    1.7298258223E-07    1.7108346642E-07    1.6920501689E-07
    1.6734701220E-07    1.6550923319E-07    1.6369146301E-07    1.6189348709E-07
    1.6011509307E-07    1.5835607084E-07    1.5661621248E-07    1.5489531226E-07
    1.5319316657E-07    1.5150957398E-07    1.4984433515E-07    1.4819725282E-07
    1.4656813183E-07    1.4495677904E-07    1.4336300335E-07    1.4178661568E-07
    1.4022742892E-07    1.3868525793E-07    1.3715991953E-07    1.3565123245E-07
    1.3415901735E-07    1.3268309676E-07    1.3122329510E-07    1.2977943861E-07
    1.2835135539E-07    1.2693887535E-07    1.2554183017E-07    1.2416005335E-07
    1.2279338010E-07    1.2144164742E-07    1.2010469398E-07    1.1878236020E-07
    1.1747448818E-07    1.1618092165E-07    1.1490150606E-07    1.1363608844E-07
    1.1238451747E-07    1.1114664342E-07    1.0992231815E-07    1.0871139510E-07
    1.0751372926E-07    1.0632917714E-07    1.0515759680E-07    1.0399884779E-07
    1.0285279116E-07    1.0171928943E-07    1.0059820658E-07    9.9489408051E-08
    9.8392760695E-08    9.7308132792E-08    9.6235394020E-08    9.5174415445E-08
    9.4125069506E-08    9.3087230002E-08    9.2060772074E-08    9.1045572195E-08
    9.0041508156E-08    8.9048459049E-08    8.8066305260E-08    8.7094928446E-08
    8.6134211532E-08    8.5184038690E-08    8.4244295331E-08    8.3314868090E-08
    8.2395644813E-08    8.1486514545E-08    8.0587367519E-08    7.9698095141E-08
    7.8818589978E-08    7.7948745748E-08    7.7088457309E-08    7.6237620640E-08
    7.5396132840E-08    7.4563892107E-08    7.3740797730E-08    7.2926750080E-08
    7.2121650596E-08    7.1325401773E-08    7.0537907152E-08    6.9759071312E-08
    6.8988799854E-08    6.8226999394E-08    6.7473577551E-08    6.6728442935E-08
    6.5991505142E-08    6.5262674735E-08    6.4541863243E-08    6.3828983145E-08
    6.3123947860E-08    6.2426671743E-08    6.1737070066E-08    6.1055059017E-08
    6.0380555684E-08    5.9713478051E-08    5.9053744983E-08    5.8401276222E-08
    5.7755992373E-08    5.7117814898E-08    5.6486666107E-08    5.5862469148E-08
    5.5245147996E-08    5.4634627449E-08    5.4030833117E-08    5.3433691412E-08
    5.2843129542E-08    5.2259075500E-08    5.1681458059E-08    5.1110206761E-08
    5.0545251909E-08    4.9986524560E-08    4.9433956519E-08    4.8887480325E-08
    4.8347029250E-08    4.7812537286E-08    4.7283939142E-08    4.6761170233E-08
    4.6244166672E-08    4.5732865266E-08    4.5227203506E-08    4.4727119561E-08
    4.4232552269E-08    4.3743441132E-08    4.3259726308E-08    4.2781348604E-08
    4.2308249469E-08    4.1840370989E-08    4.1377655875E-08    4.0920047464E-08
    4.0467489705E-08    4.0019927158E-08    3.9577304983E-08    3.9139568938E-08
    3.8706665370E-08    3.8278541206E-08    3.7855143955E-08    3.7436421693E-08
    3.7022323063E-08    3.6612797264E-08    3.6207794050E-08    3.5807263720E-08
    3.5411157116E-08    3.5019425613E-08    3.4632021116E-08    3.4248896055E-08
    3.3870003376E-08    3.3495296539E-08    3.3124729510E-08    3.2758256758E-08
    3.2395833247E-08    3.2037414433E-08    3.1682956256E-08    3.1332415138E-08
    3.0985747975E-08    3.0642912135E-08    3.0303865450E-08    2.9968566211E-08
    2.9636973166E-08    2.9309045513E-08    2.8984742895E-08    2.8664025395E-08
    2.8346853533E-08    2.8033188260E-08    2.7722990954E-08    2.7416223413E-08
    2.7112847856E-08    2.6812826910E-08    2.6516123616E-08    2.6222701415E-08
    2.5932524150E-08    2.5645556058E-08    2.5361761768E-08    2.5081106295E-08
    2.4803555039E-08    2.4529073776E-08    2.4257628658E-08    2.3989186207E-08
    2.3723713312E-08    2.3461177223E-08    2.3201545552E-08    2.2944786262E-08
    2.2690867670E-08    2.2439758437E-08    2.2191427569E-08    2.1945844413E-08
    2.1702978649E-08    2.1462800292E-08    2.1225279685E-08    2.0990387494E-08
    2.0758094711E-08    2.0528372642E-08    2.0301192909E-08    2.0076527447E-08
    1.9854348497E-08    1.9634628605E-08    1.9417340619E-08    1.9202457685E-08
    1.8989953241E-08    1.8779801021E-08    1.8571975045E-08    1.8366449619E-08
    1.8163199329E-08    1.7962199043E-08    1.7763423905E-08    1.7566849329E-08
    1.7372451003E-08    1.7180204880E-08    1.6990087177E-08    1.6802074373E-08
    1.6616143207E-08    1.6432270671E-08    1.6250434013E-08    1.6070610728E-08
    1.5892778560E-08    1.5716915499E-08    1.5542999776E-08    1.5371009860E-08
    1.5200924460E-08    1.5032722517E-08    1.4866383205E-08    1.4701885925E-08
    1.4539210308E-08    1.4378336208E-08    1.4219243698E-08    1.4061913075E-08
    1.3906324851E-08    1.3752459750E-08    1.3600298713E-08    1.3449822888E-08
    1.3301013631E-08    1.3153852504E-08    1.3008321272E-08    1.2864401900E-08
    1.2722076554E-08    1.2581327594E-08    1.2442137576E-08    1.2304489248E-08
    1.2168365547E-08    1.2033749601E-08    1.1900624721E-08    1.1768974403E-08
    1.1638782326E-08    1.1510032348E-08    1.1382708506E-08    1.1256795011E-08
    1.1132276251E-08    1.1009136784E-08    1.0887361340E-08    1.0766934816E-08
    1.0647842277E-08    1.0530068952E-08    1.0413600233E-08    1.0298421674E-08
    1.0184518988E-08    1.0071878045E-08    9.9604848734E-09    9.8503256530E-09
    9.7413867178E-09    9.6336545524E-09    9.5271157907E-09    9.4217572141E-09
    9.3175657503E-09    9.2145284710E-09    9.1126325911E-09    9.0118654666E-09
    8.9122145932E-09    8.8136676047E-09    8.7162122719E-09    8.6198365003E-09
    8.5245283293E-09    8.4302759306E-09    8.3370676064E-09    8.2448917885E-09
    8.1537370363E-09    8.0635920360E-09    7.9744455985E-09    7.8862866588E-09
    7.7991042741E-09    7.7128876226E-09    7.6276260022E-09    7.5433088292E-09
    7.4599256370E-09    7.3774660746E-09    7.2959199057E-09    7.2152770072E-09
    7.1355273679E-09    7.0566610875E-09    6.9786683752E-09    6.9015395484E-09
    6.8252650318E-09    6.7498353562E-09    6.6752411568E-09    6.6014731729E-09
    6.5285222459E-09    6.4563793189E-09    6.3850354351E-09    6.3144817368E-09
    6.2447094645E-09    6.1757099556E-09    6.1074746434E-09    6.0399950561E-09
    5.9732628157E-09    5.9072696370E-09    5.8420073264E-09    5.7774677812E-09
    5.7136429884E-09    5.6505250238E-09    5.5881060508E-09    5.5263783198E-09
    5.4653341669E-09    5.4049660132E-09    5.3452663636E-09    5.2862278063E-09
    5.2278430114E-09    5.1701047302E-09    5.1130057944E-09    5.0565391152E-09
    5.0006976821E-09    4.9454745627E-09    4.8908629009E-09    4.8368559170E-09
    4.7834469063E-09    4.7306292383E-09    4.6783963561E-09    4.6267417755E-09
    4.5756590840E-09    4.5251419405E-09    4.4751840738E-09    4.4257792826E-09
    4.3769214339E-09    4.3286044632E-09    4.2808223729E-09    4.2335692318E-09
    4.1868391749E-09    4.1406264018E-09    4.0949251766E-09    4.0497298269E-09
    4.0050347434E-09    3.9608343788E-09    3.9171232474E-09    3.8738959244E-09
    3.8311470449E-09    3.7888713037E-09    3.7470634545E-09    3.7057183091E-09
    3.6648307368E-09    3.6243956638E-09    3.5844080726E-09    3.5448630014E-09
    3.5057555434E-09    3.4670808463E-09    3.4288341115E-09    3.3910105936E-09
    3.3536056000E-09    3.3166144901E-09    3.2800326748E-09    3.2438556157E-09
    3.2080788250E-09    3.1726978647E-09    3.1377083458E-09    3.1031059283E-09
    3.0688863200E-09    3.0350452766E-09    3.0015786008E-09    2.9684821419E-09
    2.9357517952E-09    2.9033835015E-09    2.8713732468E-09    2.8397170615E-09
    2.8084110202E-09    2.7774512408E-09    2.7468338846E-09    2.7165551552E-09
    2.6866112984E-09    2.6569986019E-09    2.6277133944E-09    2.5987520452E-09
    2.5701109642E-09    2.5417866009E-09    2.5137754443E-09    2.4860740224E-09
    2.4586789017E-09    2.4315866868E-09    2.4047940199E-09    2.3782975806E-09
    2.3520940853E-09    2.3261802868E-09    2.3005529740E-09    2.2752089715E-09
    2.2501451389E-09    2.2253583709E-09    2.2008455966E-09    2.1766037792E-09
    2.1526299154E-09    2.1289210356E-09    2.1054742029E-09    2.0822865130E-09
    2.0593550939E-09    2.0366771056E-09    2.0142497394E-09    1.9920702178E-09
    1.9701357944E-09    1.9484437529E-09    1.9269914075E-09    1.9057761019E-09
    1.8847952095E-09    1.8640461328E-09    1.8435263030E-09    1.8232331801E-09
    1.8031642520E-09    1.7833170347E-09    1.7636890716E-09    1.7442779335E-09
    1.7250812181E-09    1.7060965497E-09    1.6873215791E-09    1.6687539831E-09
    1.6503914643E-09    1.6322317509E-09    1.6142725961E-09    1.5965117782E-09
    1.5789471002E-09    1.5615763892E-09    1.5443974968E-09    1.5274082983E-09
    1.5106066924E-09    1.4939906013E-09    1.4775579703E-09    1.4613067675E-09
    1.4452349833E-09    1.4293406308E-09    1.4136217448E-09    1.3980763822E-09
    1.3827026212E-09    1.3674985615E-09    1.3524623239E-09    1.3375920499E-09
    1.3228859019E-09    1.3083420624E-09    1.2939587341E-09    1.2797341400E-09
    1.2656665224E-09    1.2517541433E-09    1.2379952839E-09    1.2243882447E-09
    1.2109313447E-09    1.1976229219E-09    1.1844613325E-09    1.1714449511E-09
    1.1585721703E-09    1.1458414004E-09    1.1332510695E-09    1.1207996231E-09
    1.1084855240E-09    1.0963072520E-09    1.0842633036E-09    1.0723521924E-09
    1.0605724481E-09    1.0489226168E-09    1.0374012610E-09    1.0260069588E-09
    1.0147383042E-09    1.0035939069E-09    9.9257239188E-10    9.8167239950E-10
    9.7089258513E-10    9.6023161905E-10    9.4968818635E-10    9.3926098665E-10
    9.2894873403E-10    9.1875015684E-10    9.0866399750E-10    8.9868901242E-10
    8.8882397180E-10    8.7906765946E-10    8.6941887272E-10    8.5987642226E-10
    8.5043913194E-10    8.4110583865E-10    8.3187539220E-10    8.2274665515E-10
    8.1371850270E-10    8.0478982248E-10    7.9595951449E-10    7.8722649094E-10
    7.7858967606E-10    7.7004800606E-10    7.6160042891E-10    7.5324590427E-10
    7.4498340334E-10    7.3681190871E-10    7.2873041425E-10    7.2073792502E-10
    7.1283345709E-10    7.0501603743E-10    6.9728470381E-10    6.8963850469E-10
    6.8207649905E-10    6.7459775631E-10    6.6720135622E-10    6.5988638873E-10
    6.5265195387E-10    6.4549716165E-10    6.3842113196E-10    6.3142299443E-10
    6.2450188835E-10    6.1765696255E-10    6.1088737528E-10    6.0419229415E-10
    5.9757089597E-10    5.9102236669E-10    5.8454590127E-10    5.7814070362E-10
    5.7180598643E-10    5.6554097116E-10    5.5934488788E-10    5.5321697518E-10
    5.4715648010E-10    5.4116265804E-10    5.3523477263E-10    5.2937209566E-10
    5.2357390700E-10    5.1783949449E-10    5.1216815388E-10    5.0655918871E-10
    5.0101191023E-10    4.9552563732E-10    4.9009969643E-10    4.8473342146E-10
    4.7942615367E-10    4.7417724164E-10    4.6898604116E-10    4.6385191517E-10
    4.5877423364E-10    4.5375237354E-10    4.4878571873E-10    4.4387365990E-10
    4.3901559450E-10    4.3421092662E-10    4.2945906699E-10    4.2475943283E-10
    4.2011144785E-10    4.1551454212E-10    4.1096815201E-10    4.0647172017E-10
    4.0202469538E-10    3.9762653255E-10    3.9327669262E-10    3.8897464250E-10
    3.8471985499E-10    3.8051180874E-10    3.7634998816E-10    3.7223388340E-10
    3.6816299020E-10    3.6413680994E-10    3.6015484947E-10    3.5621662113E-10
    3.5232164266E-10    3.4846943711E-10    3.4465953284E-10    3.4089146341E-10
    3.3716476754E-10    3.3347898908E-10    3.2983367691E-10    3.2622838489E-10
    3.2266267185E-10    3.1913610147E-10    3.1564824227E-10    3.1219866756E-10
    3.0878695534E-10    3.0541268831E-10    3.0207545377E-10    2.9877484358E-10
    2.9551045412E-10    2.9228188626E-10    2.8908874525E-10    2.8593064073E-10
    2.8280718663E-10    2.7971800119E-10    2.7666270684E-10    2.7364093021E-10
    2.7065230203E-10    2.6769645714E-10    2.6477303441E-10    2.6188167670E-10
    2.5902203082E-10    2.5619374750E-10    2.5339648131E-10    2.5062989065E-10
    2.4789363770E-10    2.4518738837E-10    2.4251081226E-10    2.3986358263E-10
    2.3724537635E-10    2.3465587387E-10    2.3209475915E-10    2.2956171966E-10
    2.2705644633E-10    2.2457863349E-10    2.2212797887E-10    2.1970418351E-10
    2.1730695177E-10    2.1493599129E-10    2.1259101293E-10    2.1027173073E-10
    2.0797786192E-10    2.0570912682E-10    2.0346524888E-10    2.0124595456E-10
    1.9905097339E-10    1.9688003784E-10    1.9473288338E-10    1.9260924837E-10
    1.9050887407E-10    1.8843150461E-10    1.8637688692E-10    1.8434477076E-10
    1.8233490862E-10    1.8034705575E-10    1.7838097008E-10    1.7643641223E-10
    1.7451314545E-10    1.7261093563E-10    1.7072955121E-10    1.6886876322E-10
    1.6702834518E-10    1.6520807315E-10    1.6340772564E-10    1.6162708361E-10
    1.5986593044E-10    1.5812405189E-10    1.5640123610E-10    1.5469727354E-10
    1.5301195700E-10    1.5134508154E-10    1.4969644451E-10    1.4806584548E-10
    1.4645308621E-10    1.4485797069E-10    1.4328030504E-10    1.4171989754E-10
    1.4017655858E-10    1.3865010062E-10    1.3714033823E-10    1.3564708799E-10
    1.3417016853E-10    1.3270940045E-10    1.3126460636E-10    1.2983561080E-10
    1.2842224027E-10    1.2702432318E-10    1.2564168980E-10    1.2427417232E-10
    1.2292160474E-10    1.2158382292E-10    1.2026066451E-10    1.1895196896E-10
    1.1765757749E-10    1.1637733307E-10    1.1511108039E-10    1.1385866586E-10
    1.1261993760E-10    1.1139474539E-10    1.1018294064E-10    1.0898437645E-10
    1.0779890750E-10    1.0662639009E-10    1.0546668209E-10    1.0431964295E-10
    1.0318513365E-10    1.0206301673E-10    1.0095315623E-10    9.9855417672E-11
    9.8769668087E-11    9.7695775957E-11    9.6633611214E-11    9.5583045224E-11
    9.4543950770E-11    9.3516202037E-11    9.2499674595E-11    9.1494245384E-11
    9.0499792701E-11    8.9516196182E-11    8.8543336789E-11    8.7581096796E-11
    8.6629359772E-11    8.5688010568E-11    8.4756935304E-11    8.3836021353E-11
    8.2925157328E-11    8.2024233070E-11    8.1133139631E-11    8.0251769263E-11
    7.9380015402E-11    7.8517772662E-11    7.7664936811E-11    7.6821404769E-11
    7.5987074588E-11    7.5161845443E-11    7.4345617618E-11    7.3538292494E-11
    7.2739772539E-11    7.1949961291E-11    7.1168763354E-11    7.0396084376E-11
    6.9631831048E-11    6.8875911085E-11    6.8128233218E-11    6.7388707181E-11
    6.6657243701E-11    6.5933754489E-11    6.5218152225E-11    6.4510350551E-11
    6.3810264056E-11    6.3117808271E-11    6.2432899655E-11    6.1755455585E-11
    6.1085394348E-11    6.0422635128E-11    5.9767097998E-11    5.9118703911E-11
 </PP_TAUATOM>
</UPF>