5
pbc=[T, T, T] Lattice="2.86547991 1.65438560 2.35844176 -2.86547991 1.65438560 2.35844176 -0.00000000 -3.30877120 2.35844176" Properties=species:S:1:pos:R:3:velocities:R:3:Z:I:1
Ba         0.00000000      -0.00000000       0.03664464         0.00000000       0.00000000       0.00000000         56
Ti        -0.00000000       3.30877120       1.31984035         0.00000000       0.00000000       0.00000000         22
O        -0.00000000       1.69174397       2.25407824         0.00000000       0.00000000       0.00000000          8
O         1.40038666       4.11728482       2.25407824         0.00000000       0.00000000       0.00000000          8
O        -1.40038666       4.11728482       2.25407824         0.00000000       0.00000000       0.00000000          8
