<UPF version="2.0.1">
  <PP_INFO>

 This pseudopotential file has been produced using the code
 METAPSP-1.0.0, a code for metagga functails adapted in 2024 from
 ONCVPSP  (Optimized Norm-Conservinng Vanderbilt PSeudopotential)
 scalar-relativistic version 4.0.1 06/04/2019 by D. R. Hamann
 The code is available through a link at URL www.mat-simresearch.com.
 Documentation with the package provides a full discription of the
 input data below.


 While it is not required under the terms of the GNU GPL, it is
 suggested that you cite D. R. Hamann, Phys. Rev. B 88, 085117 (2013)
 in any publication using these pseudopotentials.

    <PP_INPUTFILE>
# ATOM AND REFERENCE CONFIGURATION
# atsym  z   nc   nv     iexc    psfile
  O  8.00    1    2       5      upf
#
#   n    l    f        energy (Ha)
    1    0    2.00
    2    0    2.00
    2    1    4.00
#
# PSEUDOPOTENTIAL AND OPTIMIZATION
# lmax
    2
#
#   l,   rc,      ep,       ncon, nbas, qcut
    0   1.35000   0.00000    4    8   8.40000
    1   1.45000   0.00000    4    8   9.30000
    2   1.25000   0.10000    4    8   6.00000
#
# LOCAL POTENTIAL
# lloc, lpopt,  rc(5),   dvloc0
    4    5   1.20000      0.00000
#
# VANDERBILT-KLEINMAN-BYLANDER PROJECTORs
# l, nproj, debl
    0    2   1.00000
    1    2   1.00000
    2    1   1.00000
#
# MODEL CORE CHARGE
# icmod, fcfact, rcfact
    5   3.00000   0.50000
#
# LOG DERIVATIVE ANALYSIS
# epsh1, epsh2, depsh
  -12.00   12.00    0.02
#
# OUTPUT GRID
# rlmax, drl
    6.00    0.01
#
# TEST CONFIGURATIONS
# ncnf
    0
# nvcnf
#   n    l    f
    </PP_INPUTFILE>
  </PP_INFO>
  <!--                               -->
  <!-- END OF HUMAN READABLE SECTION -->
  <!--                               -->
    <PP_HEADER
       generated="Generated using METAPSP code by D. R. Hamann"
       author="anonymous"
       date="260620"
       comment=""
       element="O "
       pseudo_type="NC"
       relativistic="scalar"
       is_ultrasoft="F"
       is_paw="F"
       is_coulomb="F"
       has_so="F"
       has_wfc="F"
       has_gipaw="F"
       core_correction="T"
       with_metagga_info="T"
       functional="R2SCAN01"
       z_valence="    6.00"
       total_psenergy="  -1.51156091491E+01"
       rho_cutoff="   9.09000000000E+00"
       l_max="2"
       l_local="-1"
       mesh_size="   910"
       number_of_wfc="2"
       number_of_proj="5"/>
 <PP_MESH>
   <PP_R type="real"  size=" 910" columns="8">
    0.0000    0.0100    0.0200    0.0300    0.0400    0.0500    0.0600    0.0700
    0.0800    0.0900    0.1000    0.1100    0.1200    0.1300    0.1400    0.1500
    0.1600    0.1700    0.1800    0.1900    0.2000    0.2100    0.2200    0.2300
    0.2400    0.2500    0.2600    0.2700    0.2800    0.2900    0.3000    0.3100
    0.3200    0.3300    0.3400    0.3500    0.3600    0.3700    0.3800    0.3900
    0.4000    0.4100    0.4200    0.4300    0.4400    0.4500    0.4600    0.4700
    0.4800    0.4900    0.5000    0.5100    0.5200    0.5300    0.5400    0.5500
    0.5600    0.5700    0.5800    0.5900    0.6000    0.6100    0.6200    0.6300
    0.6400    0.6500    0.6600    0.6700    0.6800    0.6900    0.7000    0.7100
    0.7200    0.7300    0.7400    0.7500    0.7600    0.7700    0.7800    0.7900
    0.8000    0.8100    0.8200    0.8300    0.8400    0.8500    0.8600    0.8700
    0.8800    0.8900    0.9000    0.9100    0.9200    0.9300    0.9400    0.9500
    0.9600    0.9700    0.9800    0.9900    1.0000    1.0100    1.0200    1.0300
    1.0400    1.0500    1.0600    1.0700    1.0800    1.0900    1.1000    1.1100
    1.1200    1.1300    1.1400    1.1500    1.1600    1.1700    1.1800    1.1900
    1.2000    1.2100    1.2200    1.2300    1.2400    1.2500    1.2600    1.2700
    1.2800    1.2900    1.3000    1.3100    1.3200    1.3300    1.3400    1.3500
    1.3600    1.3700    1.3800    1.3900    1.4000    1.4100    1.4200    1.4300
    1.4400    1.4500    1.4600    1.4700    1.4800    1.4900    1.5000    1.5100
    1.5200    1.5300    1.5400    1.5500    1.5600    1.5700    1.5800    1.5900
    1.6000    1.6100    1.6200    1.6300    1.6400    1.6500    1.6600    1.6700
    1.6800    1.6900    1.7000    1.7100    1.7200    1.7300    1.7400    1.7500
    1.7600    1.7700    1.7800    1.7900    1.8000    1.8100    1.8200    1.8300
    1.8400    1.8500    1.8600    1.8700    1.8800    1.8900    1.9000    1.9100
    1.9200    1.9300    1.9400    1.9500    1.9600    1.9700    1.9800    1.9900
    2.0000    2.0100    2.0200    2.0300    2.0400    2.0500    2.0600    2.0700
    2.0800    2.0900    2.1000    2.1100    2.1200    2.1300    2.1400    2.1500
    2.1600    2.1700    2.1800    2.1900    2.2000    2.2100    2.2200    2.2300
    2.2400    2.2500    2.2600    2.2700    2.2800    2.2900    2.3000    2.3100
    2.3200    2.3300    2.3400    2.3500    2.3600    2.3700    2.3800    2.3900
    2.4000    2.4100    2.4200    2.4300    2.4400    2.4500    2.4600    2.4700
    2.4800    2.4900    2.5000    2.5100    2.5200    2.5300    2.5400    2.5500
    2.5600    2.5700    2.5800    2.5900    2.6000    2.6100    2.6200    2.6300
    2.6400    2.6500    2.6600    2.6700    2.6800    2.6900    2.7000    2.7100
    2.7200    2.7300    2.7400    2.7500    2.7600    2.7700    2.7800    2.7900
    2.8000    2.8100    2.8200    2.8300    2.8400    2.8500    2.8600    2.8700
    2.8800    2.8900    2.9000    2.9100    2.9200    2.9300    2.9400    2.9500
    2.9600    2.9700    2.9800    2.9900    3.0000    3.0100    3.0200    3.0300
    3.0400    3.0500    3.0600    3.0700    3.0800    3.0900    3.1000    3.1100
    3.1200    3.1300    3.1400    3.1500    3.1600    3.1700    3.1800    3.1900
    3.2000    3.2100    3.2200    3.2300    3.2400    3.2500    3.2600    3.2700
    3.2800    3.2900    3.3000    3.3100    3.3200    3.3300    3.3400    3.3500
    3.3600    3.3700    3.3800    3.3900    3.4000    3.4100    3.4200    3.4300
    3.4400    3.4500    3.4600    3.4700    3.4800    3.4900    3.5000    3.5100
    3.5200    3.5300    3.5400    3.5500    3.5600    3.5700    3.5800    3.5900
    3.6000    3.6100    3.6200    3.6300    3.6400    3.6500    3.6600    3.6700
    3.6800    3.6900    3.7000    3.7100    3.7200    3.7300    3.7400    3.7500
    3.7600    3.7700    3.7800    3.7900    3.8000    3.8100    3.8200    3.8300
    3.8400    3.8500    3.8600    3.8700    3.8800    3.8900    3.9000    3.9100
    3.9200    3.9300    3.9400    3.9500    3.9600    3.9700    3.9800    3.9900
    4.0000    4.0100    4.0200    4.0300    4.0400    4.0500    4.0600    4.0700
    4.0800    4.0900    4.1000    4.1100    4.1200    4.1300    4.1400    4.1500
    4.1600    4.1700    4.1800    4.1900    4.2000    4.2100    4.2200    4.2300
    4.2400    4.2500    4.2600    4.2700    4.2800    4.2900    4.3000    4.3100
    4.3200    4.3300    4.3400    4.3500    4.3600    4.3700    4.3800    4.3900
    4.4000    4.4100    4.4200    4.4300    4.4400    4.4500    4.4600    4.4700
    4.4800    4.4900    4.5000    4.5100    4.5200    4.5300    4.5400    4.5500
    4.5600    4.5700    4.5800    4.5900    4.6000    4.6100    4.6200    4.6300
    4.6400    4.6500    4.6600    4.6700    4.6800    4.6900    4.7000    4.7100
    4.7200    4.7300    4.7400    4.7500    4.7600    4.7700    4.7800    4.7900
    4.8000    4.8100    4.8200    4.8300    4.8400    4.8500    4.8600    4.8700
    4.8800    4.8900    4.9000    4.9100    4.9200    4.9300    4.9400    4.9500
    4.9600    4.9700    4.9800    4.9900    5.0000    5.0100    5.0200    5.0300
    5.0400    5.0500    5.0600    5.0700    5.0800    5.0900    5.1000    5.1100
    5.1200    5.1300    5.1400    5.1500    5.1600    5.1700    5.1800    5.1900
    5.2000    5.2100    5.2200    5.2300    5.2400    5.2500    5.2600    5.2700
    5.2800    5.2900    5.3000    5.3100    5.3200    5.3300    5.3400    5.3500
    5.3600    5.3700    5.3800    5.3900    5.4000    5.4100    5.4200    5.4300
    5.4400    5.4500    5.4600    5.4700    5.4800    5.4900    5.5000    5.5100
    5.5200    5.5300    5.5400    5.5500    5.5600    5.5700    5.5800    5.5900
    5.6000    5.6100    5.6200    5.6300    5.6400    5.6500    5.6600    5.6700
    5.6800    5.6900    5.7000    5.7100    5.7200    5.7300    5.7400    5.7500
    5.7600    5.7700    5.7800    5.7900    5.8000    5.8100    5.8200    5.8300
    5.8400    5.8500    5.8600    5.8700    5.8800    5.8900    5.9000    5.9100
    5.9200    5.9300    5.9400    5.9500    5.9600    5.9700    5.9800    5.9900
    6.0000    6.0100    6.0200    6.0300    6.0400    6.0500    6.0600    6.0700
    6.0800    6.0900    6.1000    6.1100    6.1200    6.1300    6.1400    6.1500
    6.1600    6.1700    6.1800    6.1900    6.2000    6.2100    6.2200    6.2300
    6.2400    6.2500    6.2600    6.2700    6.2800    6.2900    6.3000    6.3100
    6.3200    6.3300    6.3400    6.3500    6.3600    6.3700    6.3800    6.3900
    6.4000    6.4100    6.4200    6.4300    6.4400    6.4500    6.4600    6.4700
    6.4800    6.4900    6.5000    6.5100    6.5200    6.5300    6.5400    6.5500
    6.5600    6.5700    6.5800    6.5900    6.6000    6.6100    6.6200    6.6300
    6.6400    6.6500    6.6600    6.6700    6.6800    6.6900    6.7000    6.7100
    6.7200    6.7300    6.7400    6.7500    6.7600    6.7700    6.7800    6.7900
    6.8000    6.8100    6.8200    6.8300    6.8400    6.8500    6.8600    6.8700
    6.8800    6.8900    6.9000    6.9100    6.9200    6.9300    6.9400    6.9500
    6.9600    6.9700    6.9800    6.9900    7.0000    7.0100    7.0200    7.0300
    7.0400    7.0500    7.0600    7.0700    7.0800    7.0900    7.1000    7.1100
    7.1200    7.1300    7.1400    7.1500    7.1600    7.1700    7.1800    7.1900
    7.2000    7.2100    7.2200    7.2300    7.2400    7.2500    7.2600    7.2700
    7.2800    7.2900    7.3000    7.3100    7.3200    7.3300    7.3400    7.3500
    7.3600    7.3700    7.3800    7.3900    7.4000    7.4100    7.4200    7.4300
    7.4400    7.4500    7.4600    7.4700    7.4800    7.4900    7.5000    7.5100
    7.5200    7.5300    7.5400    7.5500    7.5600    7.5700    7.5800    7.5900
    7.6000    7.6100    7.6200    7.6300    7.6400    7.6500    7.6600    7.6700
    7.6800    7.6900    7.7000    7.7100    7.7200    7.7300    7.7400    7.7500
    7.7600    7.7700    7.7800    7.7900    7.8000    7.8100    7.8200    7.8300
    7.8400    7.8500    7.8600    7.8700    7.8800    7.8900    7.9000    7.9100
    7.9200    7.9300    7.9400    7.9500    7.9600    7.9700    7.9800    7.9900
    8.0000    8.0100    8.0200    8.0300    8.0400    8.0500    8.0600    8.0700
    8.0800    8.0900    8.1000    8.1100    8.1200    8.1300    8.1400    8.1500
    8.1600    8.1700    8.1800    8.1900    8.2000    8.2100    8.2200    8.2300
    8.2400    8.2500    8.2600    8.2700    8.2800    8.2900    8.3000    8.3100
    8.3200    8.3300    8.3400    8.3500    8.3600    8.3700    8.3800    8.3900
    8.4000    8.4100    8.4200    8.4300    8.4400    8.4500    8.4600    8.4700
    8.4800    8.4900    8.5000    8.5100    8.5200    8.5300    8.5400    8.5500
    8.5600    8.5700    8.5800    8.5900    8.6000    8.6100    8.6200    8.6300
    8.6400    8.6500    8.6600    8.6700    8.6800    8.6900    8.7000    8.7100
    8.7200    8.7300    8.7400    8.7500    8.7600    8.7700    8.7800    8.7900
    8.8000    8.8100    8.8200    8.8300    8.8400    8.8500    8.8600    8.8700
    8.8800    8.8900    8.9000    8.9100    8.9200    8.9300    8.9400    8.9500
    8.9600    8.9700    8.9800    8.9900    9.0000    9.0100    9.0200    9.0300
    9.0400    9.0500    9.0600    9.0700    9.0800    9.0900
   </PP_R>
   <PP_RAB type="real"  size=" 910" columns="8">
    0.0100    0.0100    0.0100    0.0100    0.0100    0.0100    0.0100    0.0100
    0.0100    0.0100    0.0100    0.0100    0.0100    0.0100    0.0100    0.0100
    0.0100    0.0100    0.0100    0.0100    0.0100    0.0100    0.0100    0.0100
    0.0100    0.0100    0.0100    0.0100    0.0100    0.0100    0.0100    0.0100
    0.0100    0.0100    0.0100    0.0100    0.0100    0.0100    0.0100    0.0100
    0.0100    0.0100    0.0100    0.0100    0.0100    0.0100    0.0100    0.0100
    0.0100    0.0100    0.0100    0.0100    0.0100    0.0100    0.0100    0.0100
    0.0100    0.0100    0.0100    0.0100    0.0100    0.0100    0.0100    0.0100
    0.0100    0.0100    0.0100    0.0100    0.0100    0.0100    0.0100    0.0100
    0.0100    0.0100    0.0100    0.0100    0.0100    0.0100    0.0100    0.0100
    0.0100    0.0100    0.0100    0.0100    0.0100    0.0100    0.0100    0.0100
    0.0100    0.0100    0.0100    0.0100    0.0100    0.0100    0.0100    0.0100
    0.0100    0.0100    0.0100    0.0100    0.0100    0.0100    0.0100    0.0100
    0.0100    0.0100    0.0100    0.0100    0.0100    0.0100    0.0100    0.0100
    0.0100    0.0100    0.0100    0.0100    0.0100    0.0100    0.0100    0.0100
    0.0100    0.0100    0.0100    0.0100    0.0100    0.0100    0.0100    0.0100
    0.0100    0.0100    0.0100    0.0100    0.0100    0.0100    0.0100    0.0100
    0.0100    0.0100    0.0100    0.0100    0.0100    0.0100    0.0100    0.0100
    0.0100    0.0100    0.0100    0.0100    0.0100    0.0100    0.0100    0.0100
    0.0100    0.0100    0.0100    0.0100    0.0100    0.0100    0.0100    0.0100
    0.0100    0.0100    0.0100    0.0100    0.0100    0.0100    0.0100    0.0100
    0.0100    0.0100    0.0100    0.0100    0.0100    0.0100    0.0100    0.0100
    0.0100    0.0100    0.0100    0.0100    0.0100    0.0100    0.0100    0.0100
    0.0100    0.0100    0.0100    0.0100    0.0100    0.0100    0.0100    0.0100
    0.0100    0.0100    0.0100    0.0100    0.0100    0.0100    0.0100    0.0100
    0.0100    0.0100    0.0100    0.0100    0.0100    0.0100    0.0100    0.0100
    0.0100    0.0100    0.0100    0.0100    0.0100    0.0100    0.0100    0.0100
    0.0100    0.0100    0.0100    0.0100    0.0100    0.0100    0.0100    0.0100
    0.0100    0.0100    0.0100    0.0100    0.0100    0.0100    0.0100    0.0100
    0.0100    0.0100    0.0100    0.0100    0.0100    0.0100    0.0100    0.0100
    0.0100    0.0100    0.0100    0.0100    0.0100    0.0100    0.0100    0.0100
    0.0100    0.0100    0.0100    0.0100    0.0100    0.0100    0.0100    0.0100
    0.0100    0.0100    0.0100    0.0100    0.0100    0.0100    0.0100    0.0100
    0.0100    0.0100    0.0100    0.0100    0.0100    0.0100    0.0100    0.0100
    0.0100    0.0100    0.0100    0.0100    0.0100    0.0100    0.0100    0.0100
    0.0100    0.0100    0.0100    0.0100    0.0100    0.0100    0.0100    0.0100
    0.0100    0.0100    0.0100    0.0100    0.0100    0.0100    0.0100    0.0100
    0.0100    0.0100    0.0100    0.0100    0.0100    0.0100    0.0100    0.0100
    0.0100    0.0100    0.0100    0.0100    0.0100    0.0100    0.0100    0.0100
    0.0100    0.0100    0.0100    0.0100    0.0100    0.0100    0.0100    0.0100
    0.0100    0.0100    0.0100    0.0100    0.0100    0.0100    0.0100    0.0100
    0.0100    0.0100    0.0100    0.0100    0.0100    0.0100    0.0100    0.0100
    0.0100    0.0100    0.0100    0.0100    0.0100    0.0100    0.0100    0.0100
    0.0100    0.0100    0.0100    0.0100    0.0100    0.0100    0.0100    0.0100
    0.0100    0.0100    0.0100    0.0100    0.0100    0.0100    0.0100    0.0100
    0.0100    0.0100    0.0100    0.0100    0.0100    0.0100    0.0100    0.0100
    0.0100    0.0100    0.0100    0.0100    0.0100    0.0100    0.0100    0.0100
    0.0100    0.0100    0.0100    0.0100    0.0100    0.0100    0.0100    0.0100
    0.0100    0.0100    0.0100    0.0100    0.0100    0.0100    0.0100    0.0100
    0.0100    0.0100    0.0100    0.0100    0.0100    0.0100    0.0100    0.0100
    0.0100    0.0100    0.0100    0.0100    0.0100    0.0100    0.0100    0.0100
    0.0100    0.0100    0.0100    0.0100    0.0100    0.0100    0.0100    0.0100
    0.0100    0.0100    0.0100    0.0100    0.0100    0.0100    0.0100    0.0100
    0.0100    0.0100    0.0100    0.0100    0.0100    0.0100    0.0100    0.0100
    0.0100    0.0100    0.0100    0.0100    0.0100    0.0100    0.0100    0.0100
    0.0100    0.0100    0.0100    0.0100    0.0100    0.0100    0.0100    0.0100
    0.0100    0.0100    0.0100    0.0100    0.0100    0.0100    0.0100    0.0100
    0.0100    0.0100    0.0100    0.0100    0.0100    0.0100    0.0100    0.0100
    0.0100    0.0100    0.0100    0.0100    0.0100    0.0100    0.0100    0.0100
    0.0100    0.0100    0.0100    0.0100    0.0100    0.0100    0.0100    0.0100
    0.0100    0.0100    0.0100    0.0100    0.0100    0.0100    0.0100    0.0100
    0.0100    0.0100    0.0100    0.0100    0.0100    0.0100    0.0100    0.0100
    0.0100    0.0100    0.0100    0.0100    0.0100    0.0100    0.0100    0.0100
    0.0100    0.0100    0.0100    0.0100    0.0100    0.0100    0.0100    0.0100
    0.0100    0.0100    0.0100    0.0100    0.0100    0.0100    0.0100    0.0100
    0.0100    0.0100    0.0100    0.0100    0.0100    0.0100    0.0100    0.0100
    0.0100    0.0100    0.0100    0.0100    0.0100    0.0100    0.0100    0.0100
    0.0100    0.0100    0.0100    0.0100    0.0100    0.0100    0.0100    0.0100
    0.0100    0.0100    0.0100    0.0100    0.0100    0.0100    0.0100    0.0100
    0.0100    0.0100    0.0100    0.0100    0.0100    0.0100    0.0100    0.0100
    0.0100    0.0100    0.0100    0.0100    0.0100    0.0100    0.0100    0.0100
    0.0100    0.0100    0.0100    0.0100    0.0100    0.0100    0.0100    0.0100
    0.0100    0.0100    0.0100    0.0100    0.0100    0.0100    0.0100    0.0100
    0.0100    0.0100    0.0100    0.0100    0.0100    0.0100    0.0100    0.0100
    0.0100    0.0100    0.0100    0.0100    0.0100    0.0100    0.0100    0.0100
    0.0100    0.0100    0.0100    0.0100    0.0100    0.0100    0.0100    0.0100
    0.0100    0.0100    0.0100    0.0100    0.0100    0.0100    0.0100    0.0100
    0.0100    0.0100    0.0100    0.0100    0.0100    0.0100    0.0100    0.0100
    0.0100    0.0100    0.0100    0.0100    0.0100    0.0100    0.0100    0.0100
    0.0100    0.0100    0.0100    0.0100    0.0100    0.0100    0.0100    0.0100
    0.0100    0.0100    0.0100    0.0100    0.0100    0.0100    0.0100    0.0100
    0.0100    0.0100    0.0100    0.0100    0.0100    0.0100    0.0100    0.0100
    0.0100    0.0100    0.0100    0.0100    0.0100    0.0100    0.0100    0.0100
    0.0100    0.0100    0.0100    0.0100    0.0100    0.0100    0.0100    0.0100
    0.0100    0.0100    0.0100    0.0100    0.0100    0.0100    0.0100    0.0100
    0.0100    0.0100    0.0100    0.0100    0.0100    0.0100    0.0100    0.0100
    0.0100    0.0100    0.0100    0.0100    0.0100    0.0100    0.0100    0.0100
    0.0100    0.0100    0.0100    0.0100    0.0100    0.0100    0.0100    0.0100
    0.0100    0.0100    0.0100    0.0100    0.0100    0.0100    0.0100    0.0100
    0.0100    0.0100    0.0100    0.0100    0.0100    0.0100    0.0100    0.0100
    0.0100    0.0100    0.0100    0.0100    0.0100    0.0100    0.0100    0.0100
    0.0100    0.0100    0.0100    0.0100    0.0100    0.0100    0.0100    0.0100
    0.0100    0.0100    0.0100    0.0100    0.0100    0.0100    0.0100    0.0100
    0.0100    0.0100    0.0100    0.0100    0.0100    0.0100    0.0100    0.0100
    0.0100    0.0100    0.0100    0.0100    0.0100    0.0100    0.0100    0.0100
    0.0100    0.0100    0.0100    0.0100    0.0100    0.0100    0.0100    0.0100
    0.0100    0.0100    0.0100    0.0100    0.0100    0.0100    0.0100    0.0100
    0.0100    0.0100    0.0100    0.0100    0.0100    0.0100    0.0100    0.0100
    0.0100    0.0100    0.0100    0.0100    0.0100    0.0100    0.0100    0.0100
    0.0100    0.0100    0.0100    0.0100    0.0100    0.0100    0.0100    0.0100
    0.0100    0.0100    0.0100    0.0100    0.0100    0.0100    0.0100    0.0100
    0.0100    0.0100    0.0100    0.0100    0.0100    0.0100    0.0100    0.0100
    0.0100    0.0100    0.0100    0.0100    0.0100    0.0100    0.0100    0.0100
    0.0100    0.0100    0.0100    0.0100    0.0100    0.0100    0.0100    0.0100
    0.0100    0.0100    0.0100    0.0100    0.0100    0.0100    0.0100    0.0100
    0.0100    0.0100    0.0100    0.0100    0.0100    0.0100    0.0100    0.0100
    0.0100    0.0100    0.0100    0.0100    0.0100    0.0100    0.0100    0.0100
    0.0100    0.0100    0.0100    0.0100    0.0100    0.0100    0.0100    0.0100
    0.0100    0.0100    0.0100    0.0100    0.0100    0.0100    0.0100    0.0100
    0.0100    0.0100    0.0100    0.0100    0.0100    0.0100    0.0100    0.0100
    0.0100    0.0100    0.0100    0.0100    0.0100    0.0100    0.0100    0.0100
    0.0100    0.0100    0.0100    0.0100    0.0100    0.0100    0.0100    0.0100
    0.0100    0.0100    0.0100    0.0100    0.0100    0.0100    0.0100    0.0100
    0.0100    0.0100    0.0100    0.0100    0.0100    0.0100
   </PP_RAB>
 </PP_MESH>
  <PP_LOCAL type="real"  size=" 910" columns="4">
   -2.1305995097E+01   -2.1304714991E+01   -2.1300864070E+01   -2.1294428270E+01
   -2.1285380737E+01   -2.1273683114E+01   -2.1259285001E+01   -2.1242123075E+01
   -2.1222119666E+01   -2.1199180931E+01   -2.1173194903E+01   -2.1144029828E+01
   -2.1111533150E+01   -2.1075531671E+01   -2.1035833465E+01   -2.0992232357E+01
   -2.0944515931E+01   -2.0892478181E+01   -2.0835937963E+01   -2.0774764192E+01
   -2.0708908248E+01   -2.0638442954E+01   -2.0563605870E+01   -2.0484842296E+01
   -2.0402840582E+01   -2.0318549640E+01   -2.0233166873E+01   -2.0148085446E+01
   -2.0064794230E+01   -1.9984732509E+01   -1.9909113839E+01   -1.9838746378E+01
   -1.9773885896E+01   -1.9714157837E+01   -1.9658573455E+01   -1.9605644211E+01
   -1.9553574344E+01   -1.9500492363E+01   -1.9444674941E+01   -1.9384723088E+01
   -1.9319667125E+01   -1.9248996749E+01   -1.9172628588E+01   -1.9090831564E+01
   -1.9004129501E+01   -1.8913192635E+01   -1.8818719246E+01   -1.8721300303E+01
   -1.8621259422E+01   -1.8518472249E+01   -1.8412194309E+01   -1.8300956275E+01
   -1.8182600552E+01   -1.8054509387E+01   -1.7914008499E+01   -1.7758857500E+01
   -1.7592988794E+01   -1.7429726262E+01   -1.7271280007E+01   -1.7118533481E+01
   -1.6971789470E+01   -1.6830905050E+01   -1.6695377541E+01   -1.6564418674E+01
   -1.6437032408E+01   -1.6312168575E+01   -1.6188893076E+01   -1.6066326015E+01
   -1.5943676843E+01   -1.5820290645E+01   -1.5695680747E+01   -1.5569544407E+01
   -1.5441761394E+01   -1.5312377753E+01   -1.5181578622E+01   -1.5049654509E+01
   -1.4916965215E+01   -1.4783904846E+01   -1.4650870458E+01   -1.4518236032E+01
   -1.4386332688E+01   -1.4255435439E+01   -1.4125756266E+01   -1.3997442853E+01
   -1.3870582003E+01   -1.3745206520E+01   -1.3621304268E+01   -1.3498828177E+01
   -1.3377706153E+01   -1.3257850138E+01   -1.3139163873E+01   -1.3021549198E+01
   -1.2904910956E+01   -1.2789160697E+01   -1.2674219441E+01   -1.2560019738E+01
   -1.2446507225E+01   -1.2333641783E+01   -1.2221398367E+01   -1.2109767496E+01
   -1.1998755387E+01   -1.1888383697E+01   -1.1778688850E+01   -1.1669720944E+01
   -1.1561542258E+01   -1.1454225408E+01   -1.1347851214E+01   -1.1242506338E+01
   -1.1138280803E+01   -1.1035265458E+01   -1.0933549498E+01   -1.0833218122E+01
   -1.0734350438E+01   -1.0637017689E+01   -1.0541281886E+01   -1.0447194886E+01
   -1.0354797891E+01   -1.0264121265E+01   -1.0175184468E+01   -1.0087995719E+01
   -1.0002550902E+01   -9.9188312604E+00   -9.8368010406E+00   -9.7564025651E+00
   -9.6775465928E+00   -9.6001006634E+00   -9.5239116155E+00   -9.4489214593E+00
   -9.3751026693E+00   -9.3024281036E+00   -9.2308714170E+00   -9.1604070458E+00
   -9.0910101808E+00   -9.0226567422E+00   -8.9553233546E+00   -8.8889873502E+00
   -8.8236265750E+00   -8.7592202814E+00   -8.6957473377E+00   -8.6331876768E+00
   -8.5715217027E+00   -8.5107303666E+00   -8.4507951570E+00   -8.3916980268E+00
   -8.3334216213E+00   -8.2759487871E+00   -8.2192632723E+00   -8.1633486005E+00
   -8.1081897960E+00   -8.0537713606E+00   -8.0000785155E+00   -7.9470968418E+00
   -7.8948123005E+00   -7.8432112199E+00   -7.7922802839E+00   -7.7420065202E+00
   -7.6923772894E+00   -7.6433802743E+00   -7.5950034663E+00   -7.5472351954E+00
   -7.5000639748E+00   -7.4534787481E+00   -7.4074686404E+00   -7.3620230672E+00
   -7.3171317015E+00   -7.2727844670E+00   -7.2289715300E+00   -7.1856832924E+00
   -7.1429103850E+00   -7.1006436602E+00   -7.0588741855E+00   -7.0175932377E+00
   -6.9767922963E+00   -6.9364630379E+00   -6.8965973304E+00   -6.8571872277E+00
   -6.8182249642E+00   -6.7797029498E+00   -6.7416137650E+00   -6.7039501560E+00
   -6.6667050305E+00   -6.6298714525E+00   -6.5934426387E+00   -6.5574119542E+00
   -6.5217729080E+00   -6.4865191496E+00   -6.4516444652E+00   -6.4171427738E+00
   -6.3830081237E+00   -6.3492346894E+00   -6.3158167678E+00   -6.2827487754E+00
   -6.2500252451E+00   -6.2176408229E+00   -6.1855902654E+00   -6.1538684367E+00
   -6.1224703059E+00   -6.0913909439E+00   -6.0606255217E+00   -6.0301693069E+00
   -6.0000176622E+00   -5.9701660422E+00   -5.9406099920E+00   -5.9113451441E+00
   -5.8823672170E+00   -5.8536720124E+00   -5.8252554139E+00   -5.7971133844E+00
   -5.7692419647E+00   -5.7416372712E+00   -5.7142954943E+00   -5.6872128968E+00
   -5.6603858118E+00   -5.6338106413E+00   -5.6074838547E+00   -5.5814019870E+00
   -5.5555616372E+00   -5.5299594671E+00   -5.5045921997E+00   -5.4794566179E+00
   -5.4545495628E+00   -5.4298679328E+00   -5.4054086822E+00   -5.3811688195E+00
   -5.3571454069E+00   -5.3333355585E+00   -5.3097364396E+00   -5.2863452652E+00
   -5.2631592989E+00   -5.2401758523E+00   -5.2173922834E+00   -5.1948059959E+00
   -5.1724144381E+00   -5.1502151020E+00   -5.1282055224E+00   -5.1063832758E+00
   -5.0847459798E+00   -5.0632912919E+00   -5.0420169090E+00   -5.0209205665E+00
   -5.0000000372E+00   -4.9792531310E+00   -4.9586776939E+00   -4.9382716073E+00
   -4.9180327872E+00   -4.8979591837E+00   -4.8780487805E+00   -4.8582995951E+00
   -4.8387096774E+00   -4.8192771084E+00   -4.8000000000E+00   -4.7808764940E+00
   -4.7619047619E+00   -4.7430830040E+00   -4.7244094488E+00   -4.7058823529E+00
   -4.6875000000E+00   -4.6692607004E+00   -4.6511627907E+00   -4.6332046332E+00
   -4.6153846154E+00   -4.5977011494E+00   -4.5801526718E+00   -4.5627376426E+00
   -4.5454545455E+00   -4.5283018868E+00   -4.5112781955E+00   -4.4943820225E+00
   -4.4776119403E+00   -4.4609665428E+00   -4.4444444444E+00   -4.4280442804E+00
   -4.4117647059E+00   -4.3956043956E+00   -4.3795620438E+00   -4.3636363636E+00
   -4.3478260870E+00   -4.3321299639E+00   -4.3165467626E+00   -4.3010752688E+00
   -4.2857142857E+00   -4.2704626335E+00   -4.2553191489E+00   -4.2402826855E+00
   -4.2253521127E+00   -4.2105263158E+00   -4.1958041958E+00   -4.1811846690E+00
   -4.1666666667E+00   -4.1522491349E+00   -4.1379310345E+00   -4.1237113402E+00
   -4.1095890411E+00   -4.0955631399E+00   -4.0816326531E+00   -4.0677966102E+00
   -4.0540540541E+00   -4.0404040404E+00   -4.0268456376E+00   -4.0133779264E+00
   -4.0000000000E+00   -3.9867109635E+00   -3.9735099338E+00   -3.9603960396E+00
   -3.9473684211E+00   -3.9344262295E+00   -3.9215686275E+00   -3.9087947883E+00
   -3.8961038961E+00   -3.8834951456E+00   -3.8709677419E+00   -3.8585209003E+00
   -3.8461538462E+00   -3.8338658147E+00   -3.8216560510E+00   -3.8095238095E+00
   -3.7974683544E+00   -3.7854889590E+00   -3.7735849057E+00   -3.7617554859E+00
   -3.7500000000E+00   -3.7383177570E+00   -3.7267080745E+00   -3.7151702786E+00
   -3.7037037037E+00   -3.6923076923E+00   -3.6809815951E+00   -3.6697247706E+00
   -3.6585365854E+00   -3.6474164134E+00   -3.6363636364E+00   -3.6253776435E+00
   -3.6144578313E+00   -3.6036036036E+00   -3.5928143713E+00   -3.5820895522E+00
   -3.5714285714E+00   -3.5608308605E+00   -3.5502958580E+00   -3.5398230088E+00
   -3.5294117647E+00   -3.5190615836E+00   -3.5087719298E+00   -3.4985422741E+00
   -3.4883720930E+00   -3.4782608696E+00   -3.4682080925E+00   -3.4582132565E+00
   -3.4482758621E+00   -3.4383954155E+00   -3.4285714286E+00   -3.4188034188E+00
   -3.4090909091E+00   -3.3994334278E+00   -3.3898305085E+00   -3.3802816901E+00
   -3.3707865169E+00   -3.3613445378E+00   -3.3519553073E+00   -3.3426183844E+00
   -3.3333333333E+00   -3.3240997230E+00   -3.3149171271E+00   -3.3057851240E+00
   -3.2967032967E+00   -3.2876712329E+00   -3.2786885246E+00   -3.2697547684E+00
   -3.2608695652E+00   -3.2520325203E+00   -3.2432432432E+00   -3.2345013477E+00
   -3.2258064516E+00   -3.2171581769E+00   -3.2085561497E+00   -3.2000000000E+00
   -3.1914893617E+00   -3.1830238727E+00   -3.1746031746E+00   -3.1662269129E+00
   -3.1578947368E+00   -3.1496062992E+00   -3.1413612565E+00   -3.1331592689E+00
   -3.1250000000E+00   -3.1168831169E+00   -3.1088082902E+00   -3.1007751938E+00
   -3.0927835052E+00   -3.0848329049E+00   -3.0769230769E+00   -3.0690537084E+00
   -3.0612244898E+00   -3.0534351145E+00   -3.0456852792E+00   -3.0379746835E+00
   -3.0303030303E+00   -3.0226700252E+00   -3.0150753769E+00   -3.0075187970E+00
   -3.0000000000E+00   -2.9925187032E+00   -2.9850746269E+00   -2.9776674938E+00
   -2.9702970297E+00   -2.9629629630E+00   -2.9556650246E+00   -2.9484029484E+00
   -2.9411764706E+00   -2.9339853301E+00   -2.9268292683E+00   -2.9197080292E+00
   -2.9126213592E+00   -2.9055690073E+00   -2.8985507246E+00   -2.8915662651E+00
   -2.8846153846E+00   -2.8776978417E+00   -2.8708133971E+00   -2.8639618138E+00
   -2.8571428571E+00   -2.8503562945E+00   -2.8436018957E+00   -2.8368794326E+00
   -2.8301886792E+00   -2.8235294118E+00   -2.8169014085E+00   -2.8103044496E+00
   -2.8037383178E+00   -2.7972027972E+00   -2.7906976744E+00   -2.7842227378E+00
   -2.7777777778E+00   -2.7713625866E+00   -2.7649769585E+00   -2.7586206897E+00
   -2.7522935780E+00   -2.7459954233E+00   -2.7397260274E+00   -2.7334851936E+00
   -2.7272727273E+00   -2.7210884354E+00   -2.7149321267E+00   -2.7088036117E+00
   -2.7027027027E+00   -2.6966292135E+00   -2.6905829596E+00   -2.6845637584E+00
   -2.6785714286E+00   -2.6726057906E+00   -2.6666666667E+00   -2.6607538803E+00
   -2.6548672566E+00   -2.6490066225E+00   -2.6431718062E+00   -2.6373626374E+00
   -2.6315789474E+00   -2.6258205689E+00   -2.6200873362E+00   -2.6143790850E+00
   -2.6086956522E+00   -2.6030368764E+00   -2.5974025974E+00   -2.5917926566E+00
   -2.5862068966E+00   -2.5806451613E+00   -2.5751072961E+00   -2.5695931478E+00
   -2.5641025641E+00   -2.5586353945E+00   -2.5531914894E+00   -2.5477707006E+00
   -2.5423728814E+00   -2.5369978858E+00   -2.5316455696E+00   -2.5263157895E+00
   -2.5210084034E+00   -2.5157232704E+00   -2.5104602510E+00   -2.5052192067E+00
   -2.5000000000E+00   -2.4948024948E+00   -2.4896265560E+00   -2.4844720497E+00
   -2.4793388430E+00   -2.4742268041E+00   -2.4691358025E+00   -2.4640657084E+00
   -2.4590163934E+00   -2.4539877301E+00   -2.4489795918E+00   -2.4439918534E+00
   -2.4390243902E+00   -2.4340770791E+00   -2.4291497976E+00   -2.4242424242E+00
   -2.4193548387E+00   -2.4144869215E+00   -2.4096385542E+00   -2.4048096192E+00
   -2.4000000000E+00   -2.3952095808E+00   -2.3904382470E+00   -2.3856858847E+00
   -2.3809523810E+00   -2.3762376238E+00   -2.3715415020E+00   -2.3668639053E+00
   -2.3622047244E+00   -2.3575638507E+00   -2.3529411765E+00   -2.3483365949E+00
   -2.3437500000E+00   -2.3391812865E+00   -2.3346303502E+00   -2.3300970874E+00
   -2.3255813953E+00   -2.3210831721E+00   -2.3166023166E+00   -2.3121387283E+00
   -2.3076923077E+00   -2.3032629559E+00   -2.2988505747E+00   -2.2944550669E+00
   -2.2900763359E+00   -2.2857142857E+00   -2.2813688213E+00   -2.2770398482E+00
   -2.2727272727E+00   -2.2684310019E+00   -2.2641509434E+00   -2.2598870056E+00
   -2.2556390977E+00   -2.2514071295E+00   -2.2471910112E+00   -2.2429906542E+00
   -2.2388059701E+00   -2.2346368715E+00   -2.2304832714E+00   -2.2263450835E+00
   -2.2222222222E+00   -2.2181146026E+00   -2.2140221402E+00   -2.2099447514E+00
   -2.2058823529E+00   -2.2018348624E+00   -2.1978021978E+00   -2.1937842779E+00
   -2.1897810219E+00   -2.1857923497E+00   -2.1818181818E+00   -2.1778584392E+00
   -2.1739130435E+00   -2.1699819168E+00   -2.1660649819E+00   -2.1621621622E+00
   -2.1582733813E+00   -2.1543985637E+00   -2.1505376344E+00   -2.1466905188E+00
   -2.1428571429E+00   -2.1390374332E+00   -2.1352313167E+00   -2.1314387211E+00
   -2.1276595745E+00   -2.1238938053E+00   -2.1201413428E+00   -2.1164021164E+00
   -2.1126760563E+00   -2.1089630931E+00   -2.1052631579E+00   -2.1015761821E+00
   -2.0979020979E+00   -2.0942408377E+00   -2.0905923345E+00   -2.0869565217E+00
   -2.0833333333E+00   -2.0797227036E+00   -2.0761245675E+00   -2.0725388601E+00
   -2.0689655172E+00   -2.0654044750E+00   -2.0618556701E+00   -2.0583190395E+00
   -2.0547945205E+00   -2.0512820513E+00   -2.0477815700E+00   -2.0442930153E+00
   -2.0408163265E+00   -2.0373514431E+00   -2.0338983051E+00   -2.0304568528E+00
   -2.0270270270E+00   -2.0236087690E+00   -2.0202020202E+00   -2.0168067227E+00
   -2.0134228188E+00   -2.0100502513E+00   -2.0066889632E+00   -2.0033388982E+00
   -2.0000000000E+00   -1.9966722130E+00   -1.9933554817E+00   -1.9900497512E+00
   -1.9867549669E+00   -1.9834710744E+00   -1.9801980198E+00   -1.9769357496E+00
   -1.9736842105E+00   -1.9704433498E+00   -1.9672131148E+00   -1.9639934534E+00
   -1.9607843137E+00   -1.9575856444E+00   -1.9543973941E+00   -1.9512195122E+00
   -1.9480519481E+00   -1.9448946515E+00   -1.9417475728E+00   -1.9386106624E+00
   -1.9354838710E+00   -1.9323671498E+00   -1.9292604502E+00   -1.9261637239E+00
   -1.9230769231E+00   -1.9200000000E+00   -1.9169329073E+00   -1.9138755981E+00
   -1.9108280255E+00   -1.9077901431E+00   -1.9047619048E+00   -1.9017432647E+00
   -1.8987341772E+00   -1.8957345972E+00   -1.8927444795E+00   -1.8897637795E+00
   -1.8867924528E+00   -1.8838304553E+00   -1.8808777429E+00   -1.8779342723E+00
   -1.8750000000E+00   -1.8720748830E+00   -1.8691588785E+00   -1.8662519440E+00
   -1.8633540373E+00   -1.8604651163E+00   -1.8575851393E+00   -1.8547140649E+00
   -1.8518518519E+00   -1.8489984592E+00   -1.8461538462E+00   -1.8433179724E+00
   -1.8404907975E+00   -1.8376722818E+00   -1.8348623853E+00   -1.8320610687E+00
   -1.8292682927E+00   -1.8264840183E+00   -1.8237082067E+00   -1.8209408194E+00
   -1.8181818182E+00   -1.8154311649E+00   -1.8126888218E+00   -1.8099547511E+00
   -1.8072289157E+00   -1.8045112782E+00   -1.8018018018E+00   -1.7991004498E+00
   -1.7964071856E+00   -1.7937219731E+00   -1.7910447761E+00   -1.7883755589E+00
   -1.7857142857E+00   -1.7830609212E+00   -1.7804154303E+00   -1.7777777778E+00
   -1.7751479290E+00   -1.7725258493E+00   -1.7699115044E+00   -1.7673048601E+00
   -1.7647058824E+00   -1.7621145374E+00   -1.7595307918E+00   -1.7569546120E+00
   -1.7543859649E+00   -1.7518248175E+00   -1.7492711370E+00   -1.7467248908E+00
   -1.7441860465E+00   -1.7416545718E+00   -1.7391304348E+00   -1.7366136035E+00
   -1.7341040462E+00   -1.7316017316E+00   -1.7291066282E+00   -1.7266187050E+00
   -1.7241379310E+00   -1.7216642755E+00   -1.7191977077E+00   -1.7167381974E+00
   -1.7142857143E+00   -1.7118402282E+00   -1.7094017094E+00   -1.7069701280E+00
   -1.7045454545E+00   -1.7021276596E+00   -1.6997167139E+00   -1.6973125884E+00
   -1.6949152542E+00   -1.6925246827E+00   -1.6901408451E+00   -1.6877637131E+00
   -1.6853932584E+00   -1.6830294530E+00   -1.6806722689E+00   -1.6783216783E+00
   -1.6759776536E+00   -1.6736401674E+00   -1.6713091922E+00   -1.6689847010E+00
   -1.6666666667E+00   -1.6643550624E+00   -1.6620498615E+00   -1.6597510373E+00
   -1.6574585635E+00   -1.6551724138E+00   -1.6528925620E+00   -1.6506189821E+00
   -1.6483516484E+00   -1.6460905350E+00   -1.6438356164E+00   -1.6415868673E+00
   -1.6393442623E+00   -1.6371077763E+00   -1.6348773842E+00   -1.6326530612E+00
   -1.6304347826E+00   -1.6282225237E+00   -1.6260162602E+00   -1.6238159675E+00
   -1.6216216216E+00   -1.6194331984E+00   -1.6172506739E+00   -1.6150740242E+00
   -1.6129032258E+00   -1.6107382550E+00   -1.6085790885E+00   -1.6064257028E+00
   -1.6042780749E+00   -1.6021361816E+00   -1.6000000000E+00   -1.5978695073E+00
   -1.5957446809E+00   -1.5936254980E+00   -1.5915119363E+00   -1.5894039735E+00
   -1.5873015873E+00   -1.5852047556E+00   -1.5831134565E+00   -1.5810276680E+00
   -1.5789473684E+00   -1.5768725361E+00   -1.5748031496E+00   -1.5727391874E+00
   -1.5706806283E+00   -1.5686274510E+00   -1.5665796345E+00   -1.5645371578E+00
   -1.5625000000E+00   -1.5604681404E+00   -1.5584415584E+00   -1.5564202335E+00
   -1.5544041451E+00   -1.5523932730E+00   -1.5503875969E+00   -1.5483870968E+00
   -1.5463917526E+00   -1.5444015444E+00   -1.5424164524E+00   -1.5404364570E+00
   -1.5384615385E+00   -1.5364916773E+00   -1.5345268542E+00   -1.5325670498E+00
   -1.5306122449E+00   -1.5286624204E+00   -1.5267175573E+00   -1.5247776366E+00
   -1.5228426396E+00   -1.5209125475E+00   -1.5189873418E+00   -1.5170670038E+00
   -1.5151515152E+00   -1.5132408575E+00   -1.5113350126E+00   -1.5094339623E+00
   -1.5075376884E+00   -1.5056461731E+00   -1.5037593985E+00   -1.5018773467E+00
   -1.5000000000E+00   -1.4981273408E+00   -1.4962593516E+00   -1.4943960149E+00
   -1.4925373134E+00   -1.4906832298E+00   -1.4888337469E+00   -1.4869888476E+00
   -1.4851485149E+00   -1.4833127318E+00   -1.4814814815E+00   -1.4796547472E+00
   -1.4778325123E+00   -1.4760147601E+00   -1.4742014742E+00   -1.4723926380E+00
   -1.4705882353E+00   -1.4687882497E+00   -1.4669926650E+00   -1.4652014652E+00
   -1.4634146341E+00   -1.4616321559E+00   -1.4598540146E+00   -1.4580801944E+00
   -1.4563106796E+00   -1.4545454545E+00   -1.4527845036E+00   -1.4510278114E+00
   -1.4492753623E+00   -1.4475271411E+00   -1.4457831325E+00   -1.4440433213E+00
   -1.4423076923E+00   -1.4405762305E+00   -1.4388489209E+00   -1.4371257485E+00
   -1.4354066986E+00   -1.4336917563E+00   -1.4319809069E+00   -1.4302741359E+00
   -1.4285714286E+00   -1.4268727705E+00   -1.4251781473E+00   -1.4234875445E+00
   -1.4218009479E+00   -1.4201183432E+00   -1.4184397163E+00   -1.4167650531E+00
   -1.4150943396E+00   -1.4134275618E+00   -1.4117647059E+00   -1.4101057579E+00
   -1.4084507042E+00   -1.4067995311E+00   -1.4051522248E+00   -1.4035087719E+00
   -1.4018691589E+00   -1.4002333722E+00   -1.3986013986E+00   -1.3969732247E+00
   -1.3953488372E+00   -1.3937282230E+00   -1.3921113689E+00   -1.3904982619E+00
   -1.3888888889E+00   -1.3872832370E+00   -1.3856812933E+00   -1.3840830450E+00
   -1.3824884793E+00   -1.3808975834E+00   -1.3793103448E+00   -1.3777267509E+00
   -1.3761467890E+00   -1.3745704467E+00   -1.3729977117E+00   -1.3714285714E+00
   -1.3698630137E+00   -1.3683010262E+00   -1.3667425968E+00   -1.3651877133E+00
   -1.3636363636E+00   -1.3620885358E+00   -1.3605442177E+00   -1.3590033975E+00
   -1.3574660633E+00   -1.3559322034E+00   -1.3544018059E+00   -1.3528748591E+00
   -1.3513513514E+00   -1.3498312711E+00   -1.3483146067E+00   -1.3468013468E+00
   -1.3452914798E+00   -1.3437849944E+00   -1.3422818792E+00   -1.3407821229E+00
   -1.3392857143E+00   -1.3377926421E+00   -1.3363028953E+00   -1.3348164627E+00
   -1.3333333333E+00   -1.3318534961E+00   -1.3303769401E+00   -1.3289036545E+00
   -1.3274336283E+00   -1.3259668508E+00   -1.3245033113E+00   -1.3230429989E+00
   -1.3215859031E+00   -1.3201320132E+00
  </PP_LOCAL>
 <PP_NONLOCAL>
   <PP_BETA.1
       type="real"
       size=" 910"
       columns="4"
       index="1"
       angular_momentum="0"
       cutoff_radius_index=" 152"
       cutoff_radius="    1.5100000000E+00" >
    1.5069483439E-09    9.1927020331E-02    1.8358747665E-01    2.7471545416E-01
    3.6504634604E-01    4.5431753064E-01    5.4226907572E-01    6.2864447644E-01
    7.1319143301E-01    7.9566267163E-01    8.7581681059E-01    9.5341927110E-01
    1.0282432301E+00    1.1000706103E+00    1.1686930999E+00    1.2339131926E+00
    1.2955452371E+00    1.3534164817E+00    1.4073680990E+00    1.4572561751E+00
    1.5029526430E+00    1.5443461400E+00    1.5813427678E+00    1.6138667291E+00
    1.6418608158E+00    1.6652867209E+00    1.6841251488E+00    1.6983757012E+00
    1.7080565268E+00    1.7132037311E+00    1.7138705630E+00    1.7101264046E+00
    1.7020556067E+00    1.6897562076E+00    1.6733385668E+00    1.6529239213E+00
    1.6286428500E+00    1.6006336107E+00    1.5690403155E+00    1.5340109265E+00
    1.4956951018E+00    1.4542419821E+00    1.4097980907E+00    1.3625056030E+00
    1.3125013320E+00    1.2599168476E+00    1.2048801851E+00    1.1475195593E+00
    1.0879693139E+00    1.0263779379E+00    9.6291733067E-01    8.9779164484E-01
    8.3124322720E-01    7.6355282027E-01    6.9503178460E-01    6.2600579450E-01
    5.5696838699E-01    4.8870553475E-01    4.2162912472E-01    3.5605319287E-01
    2.9219032857E-01    2.3014249528E-01    1.6990270110E-01    1.1136571258E-01
    5.4345313903E-02   -1.3024121029E-03   -5.5519322868E-02   -1.0820581242E-01
   -1.5924649990E-01   -2.0850978122E-01   -2.5584792185E-01   -3.0109796424E-01
   -3.4408358474E-01   -3.8461790122E-01   -4.2250712758E-01   -4.5755490403E-01
   -4.8956709915E-01   -5.1835687227E-01   -5.4374979496E-01   -5.6558884982E-01
   -5.8373915040E-01   -5.9809225386E-01   -6.0856996707E-01   -6.1512757395E-01
   -6.1775643546E-01   -6.1648592987E-01   -6.1138471031E-01   -6.0256125814E-01
   -5.9016370807E-01   -5.7437891756E-01   -5.5543075396E-01   -5.3357758095E-01
   -5.0910894434E-01   -4.8234148479E-01   -4.5361413988E-01   -4.2328273640E-01
   -3.9171411002E-01   -3.5927992015E-01   -3.2635034795E-01   -2.9328787353E-01
   -2.6044132359E-01   -2.2814036446E-01   -1.9669059046E-01   -1.6636932765E-01
   -1.3742224293E-01   -1.1006081739E-01   -8.4460716456E-02   -6.0761064959E-02
   -3.9064612403E-02   -1.9438749377E-02   -1.9173088487E-03    1.3496944956E-02
    2.6829268462E-02    3.8129485221E-02    4.7468290822E-02    5.4933463498E-02
    6.0626072489E-02    6.4656673123E-02    6.7141324313E-02    6.8197065764E-02
    6.7936272479E-02    6.6458851163E-02    6.3838920440E-02    6.0107542162E-02
    5.5234347651E-02    4.9098640659E-02    4.2027132444E-02    3.4902660804E-02
    2.7976819189E-02    2.1464262087E-02    1.5558569569E-02    1.0429065323E-02
    6.2176520847E-03    3.0361365798E-03    9.6409527442E-04    5.0227540778E-05
    8.5572416139E-07    0.0000000000E+00    0.0000000000E+00    0.0000000000E+00
    0.0000000000E+00    0.0000000000E+00    0.0000000000E+00    0.0000000000E+00
    0.0000000000E+00    0.0000000000E+00    0.0000000000E+00    0.0000000000E+00
    0.0000000000E+00    0.0000000000E+00    0.0000000000E+00    0.0000000000E+00
 0. 0. 0. 0.
 0. 0. 0. 0.
 0. 0. 0. 0.
 0. 0. 0. 0.
 0. 0. 0. 0.
 0. 0. 0. 0.
 0. 0. 0. 0.
 0. 0. 0. 0.
 0. 0. 0. 0.
 0. 0. 0. 0.
 0. 0. 0. 0.
 0. 0. 0. 0.
 0. 0. 0. 0.
 0. 0. 0. 0.
 0. 0. 0. 0.
 0. 0. 0. 0.
 0. 0. 0. 0.
 0. 0. 0. 0.
 0. 0. 0. 0.
 0. 0. 0. 0.
 0. 0. 0. 0.
 0. 0. 0. 0.
 0. 0. 0. 0.
 0. 0. 0. 0.
 0. 0. 0. 0.
 0. 0. 0. 0.
 0. 0. 0. 0.
 0. 0. 0. 0.
 0. 0. 0. 0.
 0. 0. 0. 0.
 0. 0. 0. 0.
 0. 0. 0. 0.
 0. 0. 0. 0.
 0. 0. 0. 0.
 0. 0. 0. 0.
 0. 0. 0. 0.
 0. 0. 0. 0.
 0. 0. 0. 0.
 0. 0. 0. 0.
 0. 0. 0. 0.
 0. 0. 0. 0.
 0. 0. 0. 0.
 0. 0. 0. 0.
 0. 0. 0. 0.
 0. 0. 0. 0.
 0. 0. 0. 0.
 0. 0. 0. 0.
 0. 0. 0. 0.
 0. 0. 0. 0.
 0. 0. 0. 0.
 0. 0. 0. 0.
 0. 0. 0. 0.
 0. 0. 0. 0.
 0. 0. 0. 0.
 0. 0. 0. 0.
 0. 0. 0. 0.
 0. 0. 0. 0.
 0. 0. 0. 0.
 0. 0. 0. 0.
 0. 0. 0. 0.
 0. 0. 0. 0.
 0. 0. 0. 0.
 0. 0. 0. 0.
 0. 0. 0. 0.
 0. 0. 0. 0.
 0. 0. 0. 0.
 0. 0. 0. 0.
 0. 0. 0. 0.
 0. 0. 0. 0.
 0. 0. 0. 0.
 0. 0. 0. 0.
 0. 0. 0. 0.
 0. 0. 0. 0.
 0. 0. 0. 0.
 0. 0. 0. 0.
 0. 0. 0. 0.
 0. 0. 0. 0.
 0. 0. 0. 0.
 0. 0. 0. 0.
 0. 0. 0. 0.
 0. 0. 0. 0.
 0. 0. 0. 0.
 0. 0. 0. 0.
 0. 0. 0. 0.
 0. 0. 0. 0.
 0. 0. 0. 0.
 0. 0. 0. 0.
 0. 0. 0. 0.
 0. 0. 0. 0.
 0. 0. 0. 0.
 0. 0. 0. 0.
 0. 0. 0. 0.
 0. 0. 0. 0.
 0. 0. 0. 0.
 0. 0. 0. 0.
 0. 0. 0. 0.
 0. 0. 0. 0.
 0. 0. 0. 0.
 0. 0. 0. 0.
 0. 0. 0. 0.
 0. 0. 0. 0.
 0. 0. 0. 0.
 0. 0. 0. 0.
 0. 0. 0. 0.
 0. 0. 0. 0.
 0. 0. 0. 0.
 0. 0. 0. 0.
 0. 0. 0. 0.
 0. 0. 0. 0.
 0. 0. 0. 0.
 0. 0. 0. 0.
 0. 0. 0. 0.
 0. 0. 0. 0.
 0. 0. 0. 0.
 0. 0. 0. 0.
 0. 0. 0. 0.
 0. 0. 0. 0.
 0. 0. 0. 0.
 0. 0. 0. 0.
 0. 0. 0. 0.
 0. 0. 0. 0.
 0. 0. 0. 0.
 0. 0. 0. 0.
 0. 0. 0. 0.
 0. 0. 0. 0.
 0. 0. 0. 0.
 0. 0. 0. 0.
 0. 0. 0. 0.
 0. 0. 0. 0.
 0. 0. 0. 0.
 0. 0. 0. 0.
 0. 0. 0. 0.
 0. 0. 0. 0.
 0. 0. 0. 0.
 0. 0. 0. 0.
 0. 0. 0. 0.
 0. 0. 0. 0.
 0. 0. 0. 0.
 0. 0. 0. 0.
 0. 0. 0. 0.
 0. 0. 0. 0.
 0. 0. 0. 0.
 0. 0. 0. 0.
 0. 0. 0. 0.
 0. 0. 0. 0.
 0. 0. 0. 0.
 0. 0. 0. 0.
 0. 0. 0. 0.
 0. 0. 0. 0.
 0. 0. 0. 0.
 0. 0. 0. 0.
 0. 0. 0. 0.
 0. 0. 0. 0.
 0. 0. 0. 0.
 0. 0. 0. 0.
 0. 0. 0. 0.
 0. 0. 0. 0.
 0. 0. 0. 0.
 0. 0. 0. 0.
 0. 0. 0. 0.
 0. 0. 0. 0.
 0. 0. 0. 0.
 0. 0. 0. 0.
 0. 0. 0. 0.
 0. 0. 0. 0.
 0. 0. 0. 0.
 0. 0. 0. 0.
 0. 0. 0. 0.
 0. 0. 0. 0.
 0. 0. 0. 0.
 0. 0. 0. 0.
 0. 0. 0. 0.
 0. 0. 0. 0.
 0. 0. 0. 0.
 0. 0. 0. 0.
 0. 0. 0. 0.
 0. 0. 0. 0.
 0. 0. 0. 0.
 0. 0. 0. 0.
 0. 0. 0. 0.
 0. 0. 0. 0.
 0. 0. 0. 0.
 0. 0. 0. 0.
 0. 0. 0. 0.
 0. 0. 0. 0.
 0. 0. 0. 0.
 0. 0. 0. 0.
 0. 0. 0. 0.
 0. 0. 0. 0.
 0. 0.
   </PP_BETA.1>
   <PP_BETA.2
       type="real"
       size=" 910"
       columns="4"
       index="2"
       angular_momentum="0"
       cutoff_radius_index=" 152"
       cutoff_radius="    1.5100000000E+00" >
   -2.9133430668E-09   -2.7340756400E-02   -5.4445915692E-02   -8.1080709836E-02
   -1.0701204589E-01   -1.3200938522E-01   -1.5584567043E-01   -1.7829831248E-01
   -1.9915024728E-01   -2.1819106792E-01   -2.3521823439E-01   -2.5003835895E-01
   -2.6246856052E-01   -2.7233787724E-01   -2.7948872220E-01   -2.8377836280E-01
   -2.8508040072E-01   -2.8328622539E-01   -2.7830641076E-01   -2.7007202127E-01
   -2.5853578997E-01   -2.4367312782E-01   -2.2548291998E-01   -2.0398806154E-01
   -1.7923568379E-01   -1.5129702297E-01   -1.2026688958E-01   -8.6262709388E-02
   -4.9423127915E-02   -9.9061988507E-03    3.2112792225E-02    7.6443790372E-02
    1.2288462857E-01    1.7122379678E-01    2.2124327156E-01    2.7272140295E-01
    3.2543590292E-01    3.7916700741E-01    4.3370087442E-01    4.8883322664E-01
    5.4437315184E-01    6.0014684903E-01    6.5600096930E-01    7.1180505931E-01
    7.6745248869E-01    8.2285915082E-01    8.7795921003E-01    9.3269730036E-01
    9.8701696345E-01    1.0408458577E+00    1.0940794162E+00    1.1465660389E+00
    1.1980981328E+00    1.2484136420E+00    1.2972113370E+00    1.3441799578E+00
    1.3887254280E+00    1.4297651963E+00    1.4669026313E+00    1.4999171229E+00
    1.5287602427E+00    1.5535620746E+00    1.5746195559E+00    1.5923708498E+00
    1.6073605924E+00    1.6200311934E+00    1.6304633716E+00    1.6386515876E+00
    1.6445481395E+00    1.6480633614E+00    1.6490668839E+00    1.6473903753E+00
    1.6428319389E+00    1.6351621256E+00    1.6241313518E+00    1.6094784178E+00
    1.5909397733E+00    1.5682591783E+00    1.5411974258E+00    1.5095418258E+00
    1.4731151959E+00    1.4317841378E+00    1.3854664313E+00    1.3341374077E+00
    1.2778352066E+00    1.2166648365E+00    1.1508009770E+00    1.0804894643E+00
    1.0060473974E+00    9.2786180577E-01    8.4638682267E-01    7.6213933170E-01
    6.7569308624E-01    5.8767135247E-01    4.9873818530E-01    4.0958851038E-01
    3.2093724449E-01    2.3350773660E-01    1.4801984397E-01    6.5177971972E-02
   -1.4340600343E-02   -8.9896810043E-02   -1.6090005376E-01   -2.2681736619E-01
   -2.8718135994E-01   -3.4159679706E-01   -3.8974570135E-01   -4.3139095502E-01
   -4.6637835595E-01   -4.9463714616E-01   -5.1617906177E-01   -5.3109599922E-01
   -5.3955643941E-01   -5.4180081005E-01   -5.3813598631E-01   -5.2892911181E-01
   -5.1460085206E-01   -4.9561805426E-01   -4.7248557855E-01   -4.4573679127E-01
   -4.1592190330E-01   -3.8359227870E-01   -3.4927203010E-01   -3.1342310987E-01
   -2.7641250905E-01   -2.3846416822E-01   -2.0044119446E-01   -1.6400518224E-01
   -1.2987272144E-01   -9.8679965980E-02   -7.1001974858E-02   -4.7344542686E-02
   -2.8136486519E-02   -1.3723133208E-02   -4.3611270916E-03   -2.2784607399E-04
   -3.8835119934E-06    0.0000000000E+00    0.0000000000E+00    0.0000000000E+00
    0.0000000000E+00    0.0000000000E+00    0.0000000000E+00    0.0000000000E+00
    0.0000000000E+00    0.0000000000E+00    0.0000000000E+00    0.0000000000E+00
    0.0000000000E+00    0.0000000000E+00    0.0000000000E+00    0.0000000000E+00
 0. 0. 0. 0.
 0. 0. 0. 0.
 0. 0. 0. 0.
 0. 0. 0. 0.
 0. 0. 0. 0.
 0. 0. 0. 0.
 0. 0. 0. 0.
 0. 0. 0. 0.
 0. 0. 0. 0.
 0. 0. 0. 0.
 0. 0. 0. 0.
 0. 0. 0. 0.
 0. 0. 0. 0.
 0. 0. 0. 0.
 0. 0. 0. 0.
 0. 0. 0. 0.
 0. 0. 0. 0.
 0. 0. 0. 0.
 0. 0. 0. 0.
 0. 0. 0. 0.
 0. 0. 0. 0.
 0. 0. 0. 0.
 0. 0. 0. 0.
 0. 0. 0. 0.
 0. 0. 0. 0.
 0. 0. 0. 0.
 0. 0. 0. 0.
 0. 0. 0. 0.
 0. 0. 0. 0.
 0. 0. 0. 0.
 0. 0. 0. 0.
 0. 0. 0. 0.
 0. 0. 0. 0.
 0. 0. 0. 0.
 0. 0. 0. 0.
 0. 0. 0. 0.
 0. 0. 0. 0.
 0. 0. 0. 0.
 0. 0. 0. 0.
 0. 0. 0. 0.
 0. 0. 0. 0.
 0. 0. 0. 0.
 0. 0. 0. 0.
 0. 0. 0. 0.
 0. 0. 0. 0.
 0. 0. 0. 0.
 0. 0. 0. 0.
 0. 0. 0. 0.
 0. 0. 0. 0.
 0. 0. 0. 0.
 0. 0. 0. 0.
 0. 0. 0. 0.
 0. 0. 0. 0.
 0. 0. 0. 0.
 0. 0. 0. 0.
 0. 0. 0. 0.
 0. 0. 0. 0.
 0. 0. 0. 0.
 0. 0. 0. 0.
 0. 0. 0. 0.
 0. 0. 0. 0.
 0. 0. 0. 0.
 0. 0. 0. 0.
 0. 0. 0. 0.
 0. 0. 0. 0.
 0. 0. 0. 0.
 0. 0. 0. 0.
 0. 0. 0. 0.
 0. 0. 0. 0.
 0. 0. 0. 0.
 0. 0. 0. 0.
 0. 0. 0. 0.
 0. 0. 0. 0.
 0. 0. 0. 0.
 0. 0. 0. 0.
 0. 0. 0. 0.
 0. 0. 0. 0.
 0. 0. 0. 0.
 0. 0. 0. 0.
 0. 0. 0. 0.
 0. 0. 0. 0.
 0. 0. 0. 0.
 0. 0. 0. 0.
 0. 0. 0. 0.
 0. 0. 0. 0.
 0. 0. 0. 0.
 0. 0. 0. 0.
 0. 0. 0. 0.
 0. 0. 0. 0.
 0. 0. 0. 0.
 0. 0. 0. 0.
 0. 0. 0. 0.
 0. 0. 0. 0.
 0. 0. 0. 0.
 0. 0. 0. 0.
 0. 0. 0. 0.
 0. 0. 0. 0.
 0. 0. 0. 0.
 0. 0. 0. 0.
 0. 0. 0. 0.
 0. 0. 0. 0.
 0. 0. 0. 0.
 0. 0. 0. 0.
 0. 0. 0. 0.
 0. 0. 0. 0.
 0. 0. 0. 0.
 0. 0. 0. 0.
 0. 0. 0. 0.
 0. 0. 0. 0.
 0. 0. 0. 0.
 0. 0. 0. 0.
 0. 0. 0. 0.
 0. 0. 0. 0.
 0. 0. 0. 0.
 0. 0. 0. 0.
 0. 0. 0. 0.
 0. 0. 0. 0.
 0. 0. 0. 0.
 0. 0. 0. 0.
 0. 0. 0. 0.
 0. 0. 0. 0.
 0. 0. 0. 0.
 0. 0. 0. 0.
 0. 0. 0. 0.
 0. 0. 0. 0.
 0. 0. 0. 0.
 0. 0. 0. 0.
 0. 0. 0. 0.
 0. 0. 0. 0.
 0. 0. 0. 0.
 0. 0. 0. 0.
 0. 0. 0. 0.
 0. 0. 0. 0.
 0. 0. 0. 0.
 0. 0. 0. 0.
 0. 0. 0. 0.
 0. 0. 0. 0.
 0. 0. 0. 0.
 0. 0. 0. 0.
 0. 0. 0. 0.
 0. 0. 0. 0.
 0. 0. 0. 0.
 0. 0. 0. 0.
 0. 0. 0. 0.
 0. 0. 0. 0.
 0. 0. 0. 0.
 0. 0. 0. 0.
 0. 0. 0. 0.
 0. 0. 0. 0.
 0. 0. 0. 0.
 0. 0. 0. 0.
 0. 0. 0. 0.
 0. 0. 0. 0.
 0. 0. 0. 0.
 0. 0. 0. 0.
 0. 0. 0. 0.
 0. 0. 0. 0.
 0. 0. 0. 0.
 0. 0. 0. 0.
 0. 0. 0. 0.
 0. 0. 0. 0.
 0. 0. 0. 0.
 0. 0. 0. 0.
 0. 0. 0. 0.
 0. 0. 0. 0.
 0. 0. 0. 0.
 0. 0. 0. 0.
 0. 0. 0. 0.
 0. 0. 0. 0.
 0. 0. 0. 0.
 0. 0. 0. 0.
 0. 0. 0. 0.
 0. 0. 0. 0.
 0. 0. 0. 0.
 0. 0. 0. 0.
 0. 0. 0. 0.
 0. 0. 0. 0.
 0. 0. 0. 0.
 0. 0. 0. 0.
 0. 0. 0. 0.
 0. 0. 0. 0.
 0. 0. 0. 0.
 0. 0. 0. 0.
 0. 0. 0. 0.
 0. 0. 0. 0.
 0. 0. 0. 0.
 0. 0. 0. 0.
 0. 0. 0. 0.
 0. 0. 0. 0.
 0. 0.
   </PP_BETA.2>
   <PP_BETA.3
       type="real"
       size=" 910"
       columns="4"
       index="3"
       angular_momentum="1"
       cutoff_radius_index=" 152"
       cutoff_radius="    1.5100000000E+00" >
   -3.1818186974E-09    1.9884025089E-03    7.9462523949E-03    1.7851442610E-02
    3.1667016395E-02    4.9341007008E-02    7.0806227593E-02    9.5980024949E-02
    1.2476401414E-01    1.5704381351E-01    1.9268880182E-01    2.3155192040E-01
    2.7346954401E-01    3.1826144360E-01    3.6573086330E-01    4.1566473190E-01
    4.6783402636E-01    5.2199430153E-01    5.7788639671E-01    6.3523732533E-01
    6.9376135109E-01    7.5316125083E-01    8.1312976365E-01    8.7335122652E-01
    9.3350339951E-01    9.9325948816E-01    1.0522903745E+00    1.1102670691E+00
    1.1668633914E+00    1.2217588678E+00    1.2746418152E+00    1.3252125347E+00
    1.3731865151E+00    1.4182975137E+00    1.4603003865E+00    1.4989735684E+00
    1.5341211558E+00    1.5655746064E+00    1.5931941242E+00    1.6168698102E+00
    1.6365226392E+00    1.6521052515E+00    1.6636024525E+00    1.6710311937E+00
    1.6744397034E+00    1.6739053393E+00    1.6695307014E+00    1.6614375940E+00
    1.6497586301E+00    1.6346266998E+00    1.6161632035E+00    1.5944668253E+00
    1.5696054464E+00    1.5416141506E+00    1.5105016428E+00    1.4762656329E+00
    1.4387662272E+00    1.3976151445E+00    1.3527474419E+00    1.3042024943E+00
    1.2521282163E+00    1.1967869654E+00    1.1385496753E+00    1.0778804173E+00
    1.0153143984E+00    9.5134725278E-01    8.8629823078E-01    8.2044558252E-01
    7.5404831355E-01    6.8734621495E-01    6.2056053248E-01    5.5389538197E-01
    4.8753989660E-01    4.2167098148E-01    3.5645647615E-01    2.9205848981E-01
    2.2863667310E-01    1.6635121363E-01    1.0536537975E-01    4.5847481188E-02
   -1.2027839801E-02   -6.8079029818E-02   -1.2211776172E-01   -1.7394975812E-01
   -2.2337624509E-01   -2.7019596254E-01   -3.1420764925E-01   -3.5521291861E-01
   -3.9301944446E-01   -4.2744438101E-01   -4.5831794392E-01   -4.8548707975E-01
   -5.0881914662E-01   -5.2820552163E-01   -5.4356504176E-01   -5.5484717755E-01
   -5.6203483470E-01   -5.6514668010E-01   -5.6423889685E-01   -5.5940628670E-01
   -5.5078265822E-01   -5.3854046129E-01   -5.2288965347E-01   -5.0407580580E-01
   -4.8237747614E-01   -4.5810289426E-01   -4.3158601555E-01   -4.0318200975E-01
   -3.7326225895E-01   -3.4220894770E-01   -3.1040933850E-01   -2.7824983853E-01
   -2.4610997721E-01   -2.1435642555E-01   -1.8333719284E-01   -1.5337612834E-01
   -1.2476782896E-01   -9.7773003500E-02   -7.2614269045E-02   -4.9472256529E-02
   -2.8481793262E-02   -9.7277256042E-03    6.7610260635E-03    2.1018561682E-02
    3.3149023927E-02    4.3338019415E-02    5.1580511363E-02    5.7628262366E-02
    6.1578321458E-02    6.3568697558E-02    6.3765291038E-02    6.2358078185E-02
    5.9557098426E-02    5.5588109890E-02    5.0687991721E-02    4.5099978122E-02
    3.9068812881E-02    3.2835914963E-02    2.6634646275E-02    2.0685770993E-02
    1.5193192745E-02    1.0340050977E-02    6.2852512802E-03    3.1604964659E-03
    1.0678758165E-03    7.9756515733E-05    1.5900702227E-06   -5.6373427234E-13
    0.0000000000E+00    0.0000000000E+00    0.0000000000E+00    0.0000000000E+00
 0. 0. 0. 0.
 0. 0. 0. 0.
 0. 0. 0. 0.
 0. 0. 0. 0.
 0. 0. 0. 0.
 0. 0. 0. 0.
 0. 0. 0. 0.
 0. 0. 0. 0.
 0. 0. 0. 0.
 0. 0. 0. 0.
 0. 0. 0. 0.
 0. 0. 0. 0.
 0. 0. 0. 0.
 0. 0. 0. 0.
 0. 0. 0. 0.
 0. 0. 0. 0.
 0. 0. 0. 0.
 0. 0. 0. 0.
 0. 0. 0. 0.
 0. 0. 0. 0.
 0. 0. 0. 0.
 0. 0. 0. 0.
 0. 0. 0. 0.
 0. 0. 0. 0.
 0. 0. 0. 0.
 0. 0. 0. 0.
 0. 0. 0. 0.
 0. 0. 0. 0.
 0. 0. 0. 0.
 0. 0. 0. 0.
 0. 0. 0. 0.
 0. 0. 0. 0.
 0. 0. 0. 0.
 0. 0. 0. 0.
 0. 0. 0. 0.
 0. 0. 0. 0.
 0. 0. 0. 0.
 0. 0. 0. 0.
 0. 0. 0. 0.
 0. 0. 0. 0.
 0. 0. 0. 0.
 0. 0. 0. 0.
 0. 0. 0. 0.
 0. 0. 0. 0.
 0. 0. 0. 0.
 0. 0. 0. 0.
 0. 0. 0. 0.
 0. 0. 0. 0.
 0. 0. 0. 0.
 0. 0. 0. 0.
 0. 0. 0. 0.
 0. 0. 0. 0.
 0. 0. 0. 0.
 0. 0. 0. 0.
 0. 0. 0. 0.
 0. 0. 0. 0.
 0. 0. 0. 0.
 0. 0. 0. 0.
 0. 0. 0. 0.
 0. 0. 0. 0.
 0. 0. 0. 0.
 0. 0. 0. 0.
 0. 0. 0. 0.
 0. 0. 0. 0.
 0. 0. 0. 0.
 0. 0. 0. 0.
 0. 0. 0. 0.
 0. 0. 0. 0.
 0. 0. 0. 0.
 0. 0. 0. 0.
 0. 0. 0. 0.
 0. 0. 0. 0.
 0. 0. 0. 0.
 0. 0. 0. 0.
 0. 0. 0. 0.
 0. 0. 0. 0.
 0. 0. 0. 0.
 0. 0. 0. 0.
 0. 0. 0. 0.
 0. 0. 0. 0.
 0. 0. 0. 0.
 0. 0. 0. 0.
 0. 0. 0. 0.
 0. 0. 0. 0.
 0. 0. 0. 0.
 0. 0. 0. 0.
 0. 0. 0. 0.
 0. 0. 0. 0.
 0. 0. 0. 0.
 0. 0. 0. 0.
 0. 0. 0. 0.
 0. 0. 0. 0.
 0. 0. 0. 0.
 0. 0. 0. 0.
 0. 0. 0. 0.
 0. 0. 0. 0.
 0. 0. 0. 0.
 0. 0. 0. 0.
 0. 0. 0. 0.
 0. 0. 0. 0.
 0. 0. 0. 0.
 0. 0. 0. 0.
 0. 0. 0. 0.
 0. 0. 0. 0.
 0. 0. 0. 0.
 0. 0. 0. 0.
 0. 0. 0. 0.
 0. 0. 0. 0.
 0. 0. 0. 0.
 0. 0. 0. 0.
 0. 0. 0. 0.
 0. 0. 0. 0.
 0. 0. 0. 0.
 0. 0. 0. 0.
 0. 0. 0. 0.
 0. 0. 0. 0.
 0. 0. 0. 0.
 0. 0. 0. 0.
 0. 0. 0. 0.
 0. 0. 0. 0.
 0. 0. 0. 0.
 0. 0. 0. 0.
 0. 0. 0. 0.
 0. 0. 0. 0.
 0. 0. 0. 0.
 0. 0. 0. 0.
 0. 0. 0. 0.
 0. 0. 0. 0.
 0. 0. 0. 0.
 0. 0. 0. 0.
 0. 0. 0. 0.
 0. 0. 0. 0.
 0. 0. 0. 0.
 0. 0. 0. 0.
 0. 0. 0. 0.
 0. 0. 0. 0.
 0. 0. 0. 0.
 0. 0. 0. 0.
 0. 0. 0. 0.
 0. 0. 0. 0.
 0. 0. 0. 0.
 0. 0. 0. 0.
 0. 0. 0. 0.
 0. 0. 0. 0.
 0. 0. 0. 0.
 0. 0. 0. 0.
 0. 0. 0. 0.
 0. 0. 0. 0.
 0. 0. 0. 0.
 0. 0. 0. 0.
 0. 0. 0. 0.
 0. 0. 0. 0.
 0. 0. 0. 0.
 0. 0. 0. 0.
 0. 0. 0. 0.
 0. 0. 0. 0.
 0. 0. 0. 0.
 0. 0. 0. 0.
 0. 0. 0. 0.
 0. 0. 0. 0.
 0. 0. 0. 0.
 0. 0. 0. 0.
 0. 0. 0. 0.
 0. 0. 0. 0.
 0. 0. 0. 0.
 0. 0. 0. 0.
 0. 0. 0. 0.
 0. 0. 0. 0.
 0. 0. 0. 0.
 0. 0. 0. 0.
 0. 0. 0. 0.
 0. 0. 0. 0.
 0. 0. 0. 0.
 0. 0. 0. 0.
 0. 0. 0. 0.
 0. 0. 0. 0.
 0. 0. 0. 0.
 0. 0. 0. 0.
 0. 0. 0. 0.
 0. 0. 0. 0.
 0. 0. 0. 0.
 0. 0. 0. 0.
 0. 0. 0. 0.
 0. 0. 0. 0.
 0. 0. 0. 0.
 0. 0. 0. 0.
 0. 0. 0. 0.
 0. 0. 0. 0.
 0. 0. 0. 0.
 0. 0.
   </PP_BETA.3>
   <PP_BETA.4
       type="real"
       size=" 910"
       columns="4"
       index="4"
       angular_momentum="1"
       cutoff_radius_index=" 152"
       cutoff_radius="    1.5100000000E+00" >
    7.4987537083E-09   -7.5007956775E-04   -2.9980049343E-03   -6.7367046598E-03
   -1.1953959720E-02   -1.8631770254E-02   -2.6745501890E-02   -3.6262843407E-02
   -4.7142614966E-02   -5.9333472543E-02   -7.2772559230E-02   -8.7384157676E-02
   -1.0307839995E-01   -1.1975009151E-01   -1.3727770488E-01   -1.5552259572E-01
   -1.7432849023E-01   -1.9352128759E-01   -2.1290921537E-01   -2.3228336975E-01
   -2.5141866636E-01   -2.7007522172E-01   -2.8800018002E-01   -3.0492999435E-01
   -3.2059316468E-01   -3.3471342488E-01   -3.4701335612E-01   -3.5721838074E-01
   -3.6506106090E-01   -3.7028558992E-01   -3.7265233036E-01   -3.7194222995E-01
   -3.6796094713E-01   -3.6054254863E-01   -3.4955270102E-01   -3.3489135198E-01
   -3.1649496300E-01   -2.9433838697E-01   -2.6843646703E-01   -2.3884536314E-01
   -2.0566350372E-01   -1.6903193334E-01   -1.2913370492E-01   -8.6191865935E-02
   -4.0465527269E-02    7.7564995610E-03    5.8164919307E-02    1.1044220039E-01
    1.6427754849E-01    2.1938352252E-01    2.7551215614E-01    3.3246733502E-01
    3.9010947839E-01    4.4834894175E-01    5.0712657307E-01    5.6638327388E-01
    6.2631684598E-01    6.8753364821E-01    7.4994705192E-01    8.1330600710E-01
    8.7721763848E-01    9.4115981858E-01    1.0045083659E+00    1.0665731857E+00
    1.1266377714E+00    1.1841342732E+00    1.2388324408E+00    1.2905884435E+00
    1.3393019090E+00    1.3849105985E+00    1.4273846297E+00    1.4667200906E+00
    1.5029321042E+00    1.5360475593E+00    1.5660978189E+00    1.5931117393E+00
    1.6171093123E+00    1.6380961929E+00    1.6560593108E+00    1.6709636991E+00
    1.6827506119E+00    1.6913369459E+00    1.6966159340E+00    1.6984590352E+00
    1.6967189176E+00    1.6912334082E+00    1.6818302734E+00    1.6683326894E+00
    1.6505652639E+00    1.6283604734E+00    1.6015653776E+00    1.5700484729E+00
    1.5337065357E+00    1.4924712984E+00    1.4463157886E+00    1.3952601577E+00
    1.3393768215E+00    1.2787947434E+00    1.2137027057E+00    1.1443514373E+00
    1.0710544973E+00    9.9418784536E-01    9.1418806599E-01    8.3154924665E-01
    7.4681853786E-01    6.6059044924E-01    5.7349995569E-01    4.8621450533E-01
    3.9942503748E-01    3.1383613770E-01    2.3015547920E-01    1.4908272743E-01
    7.1298114020E-02   -2.5490847539E-03   -7.1851910742E-02   -1.3605667071E-01
   -1.9467323515E-01   -2.4728451784E-01   -2.9355506588E-01   -3.3323882948E-01
   -3.6618634435E-01   -3.9235209708E-01   -4.1180621171E-01   -4.2474730031E-01
   -4.3151216319E-01   -4.3259079106E-01   -4.2823395773E-01   -4.1837364290E-01
   -4.0346404573E-01   -3.8404205725E-01   -3.6070441955E-01   -3.3409771342E-01
   -3.0490770832E-01   -2.7384795600E-01   -2.4164782138E-01   -2.0904015858E-01
   -1.7674884914E-01   -1.4547642379E-01   -1.1589198993E-01   -8.8619682863E-02
   -6.4227851259E-02   -4.3219174895E-02   -2.6021896857E-02   -1.2982332933E-02
   -4.3587980581E-03   -3.2394918677E-04   -6.4516161109E-06    1.3725640183E-12
    0.0000000000E+00    0.0000000000E+00    0.0000000000E+00    0.0000000000E+00
 0. 0. 0. 0.
 0. 0. 0. 0.
 0. 0. 0. 0.
 0. 0. 0. 0.
 0. 0. 0. 0.
 0. 0. 0. 0.
 0. 0. 0. 0.
 0. 0. 0. 0.
 0. 0. 0. 0.
 0. 0. 0. 0.
 0. 0. 0. 0.
 0. 0. 0. 0.
 0. 0. 0. 0.
 0. 0. 0. 0.
 0. 0. 0. 0.
 0. 0. 0. 0.
 0. 0. 0. 0.
 0. 0. 0. 0.
 0. 0. 0. 0.
 0. 0. 0. 0.
 0. 0. 0. 0.
 0. 0. 0. 0.
 0. 0. 0. 0.
 0. 0. 0. 0.
 0. 0. 0. 0.
 0. 0. 0. 0.
 0. 0. 0. 0.
 0. 0. 0. 0.
 0. 0. 0. 0.
 0. 0. 0. 0.
 0. 0. 0. 0.
 0. 0. 0. 0.
 0. 0. 0. 0.
 0. 0. 0. 0.
 0. 0. 0. 0.
 0. 0. 0. 0.
 0. 0. 0. 0.
 0. 0. 0. 0.
 0. 0. 0. 0.
 0. 0. 0. 0.
 0. 0. 0. 0.
 0. 0. 0. 0.
 0. 0. 0. 0.
 0. 0. 0. 0.
 0. 0. 0. 0.
 0. 0. 0. 0.
 0. 0. 0. 0.
 0. 0. 0. 0.
 0. 0. 0. 0.
 0. 0. 0. 0.
 0. 0. 0. 0.
 0. 0. 0. 0.
 0. 0. 0. 0.
 0. 0. 0. 0.
 0. 0. 0. 0.
 0. 0. 0. 0.
 0. 0. 0. 0.
 0. 0. 0. 0.
 0. 0. 0. 0.
 0. 0. 0. 0.
 0. 0. 0. 0.
 0. 0. 0. 0.
 0. 0. 0. 0.
 0. 0. 0. 0.
 0. 0. 0. 0.
 0. 0. 0. 0.
 0. 0. 0. 0.
 0. 0. 0. 0.
 0. 0. 0. 0.
 0. 0. 0. 0.
 0. 0. 0. 0.
 0. 0. 0. 0.
 0. 0. 0. 0.
 0. 0. 0. 0.
 0. 0. 0. 0.
 0. 0. 0. 0.
 0. 0. 0. 0.
 0. 0. 0. 0.
 0. 0. 0. 0.
 0. 0. 0. 0.
 0. 0. 0. 0.
 0. 0. 0. 0.
 0. 0. 0. 0.
 0. 0. 0. 0.
 0. 0. 0. 0.
 0. 0. 0. 0.
 0. 0. 0. 0.
 0. 0. 0. 0.
 0. 0. 0. 0.
 0. 0. 0. 0.
 0. 0. 0. 0.
 0. 0. 0. 0.
 0. 0. 0. 0.
 0. 0. 0. 0.
 0. 0. 0. 0.
 0. 0. 0. 0.
 0. 0. 0. 0.
 0. 0. 0. 0.
 0. 0. 0. 0.
 0. 0. 0. 0.
 0. 0. 0. 0.
 0. 0. 0. 0.
 0. 0. 0. 0.
 0. 0. 0. 0.
 0. 0. 0. 0.
 0. 0. 0. 0.
 0. 0. 0. 0.
 0. 0. 0. 0.
 0. 0. 0. 0.
 0. 0. 0. 0.
 0. 0. 0. 0.
 0. 0. 0. 0.
 0. 0. 0. 0.
 0. 0. 0. 0.
 0. 0. 0. 0.
 0. 0. 0. 0.
 0. 0. 0. 0.
 0. 0. 0. 0.
 0. 0. 0. 0.
 0. 0. 0. 0.
 0. 0. 0. 0.
 0. 0. 0. 0.
 0. 0. 0. 0.
 0. 0. 0. 0.
 0. 0. 0. 0.
 0. 0. 0. 0.
 0. 0. 0. 0.
 0. 0. 0. 0.
 0. 0. 0. 0.
 0. 0. 0. 0.
 0. 0. 0. 0.
 0. 0. 0. 0.
 0. 0. 0. 0.
 0. 0. 0. 0.
 0. 0. 0. 0.
 0. 0. 0. 0.
 0. 0. 0. 0.
 0. 0. 0. 0.
 0. 0. 0. 0.
 0. 0. 0. 0.
 0. 0. 0. 0.
 0. 0. 0. 0.
 0. 0. 0. 0.
 0. 0. 0. 0.
 0. 0. 0. 0.
 0. 0. 0. 0.
 0. 0. 0. 0.
 0. 0. 0. 0.
 0. 0. 0. 0.
 0. 0. 0. 0.
 0. 0. 0. 0.
 0. 0. 0. 0.
 0. 0. 0. 0.
 0. 0. 0. 0.
 0. 0. 0. 0.
 0. 0. 0. 0.
 0. 0. 0. 0.
 0. 0. 0. 0.
 0. 0. 0. 0.
 0. 0. 0. 0.
 0. 0. 0. 0.
 0. 0. 0. 0.
 0. 0. 0. 0.
 0. 0. 0. 0.
 0. 0. 0. 0.
 0. 0. 0. 0.
 0. 0. 0. 0.
 0. 0. 0. 0.
 0. 0. 0. 0.
 0. 0. 0. 0.
 0. 0. 0. 0.
 0. 0. 0. 0.
 0. 0. 0. 0.
 0. 0. 0. 0.
 0. 0. 0. 0.
 0. 0. 0. 0.
 0. 0. 0. 0.
 0. 0. 0. 0.
 0. 0. 0. 0.
 0. 0. 0. 0.
 0. 0. 0. 0.
 0. 0. 0. 0.
 0. 0. 0. 0.
 0. 0. 0. 0.
 0. 0. 0. 0.
 0. 0. 0. 0.
 0. 0. 0. 0.
 0. 0. 0. 0.
 0. 0. 0. 0.
 0. 0.
   </PP_BETA.4>
   <PP_BETA.5
       type="real"
       size=" 910"
       columns="4"
       index="5"
       angular_momentum="2"
       cutoff_radius_index=" 152"
       cutoff_radius="    1.5100000000E+00" >
    1.2182135799E-07    1.4996584404E-04    1.1926096605E-03    3.9852653325E-03
    9.3156976456E-03    1.7870082750E-02    3.0204216007E-02    4.6718874654E-02
    6.7640140923E-02    9.3005345453E-02    1.2265512521E-01    1.5623190924E-01
    1.9318495478E-01    2.3278186032E-01    2.7412628803E-01    3.1618143953E-01
    3.5779865350E-01    3.9775033516E-01    4.3476629172E-01    4.6757243868E-01
    4.9493076218E-01    5.1567937577E-01    5.2877149580E-01    5.3331217828E-01
    5.2859170867E-01    5.1411461111E-01    4.8962334022E-01    4.5511583327E-01
    4.1085623091E-01    3.5737822430E-01    2.9548066075E-01    2.2621524873E-01
    1.5086645137E-01    7.0923940784E-02   -1.1951714782E-02   -9.5969176696E-02
   -1.7925109360E-01   -2.5988216943E-01   -3.3595917657E-01   -4.0564159035E-01
   -4.6720161787E-01   -5.1907251619E-01   -5.5989421866E-01   -5.8855540502E-01
   -6.0423126063E-01   -6.0641626853E-01   -5.9495144136E-01   -5.7004537582E-01
   -5.3228832361E-01   -4.8265804885E-01   -4.2251558930E-01   -3.5358833131E-01
   -2.7793745054E-01   -1.9790734316E-01   -1.1605669353E-01   -3.5074043244E-02
    4.2005533745E-02    1.1172260256E-01    1.7141803213E-01    2.1871381315E-01
    2.5155496297E-01    2.6826244973E-01    2.6756769108E-01    2.4863154924E-01
    2.1105080881E-01    1.5470503795E-01    7.9580434443E-02   -1.3937059494E-02
   -1.2501399833E-01   -2.5237543962E-01   -3.9432225497E-01   -5.4875899162E-01
   -7.1323154363E-01   -8.8497386767E-01   -1.0609628918E+00   -1.2379806207E+00
   -1.4126822547E+00   -1.5816689382E+00   -1.7415635572E+00   -1.8890878403E+00
   -2.0211388853E+00   -2.1348631652E+00   -2.2277260472E+00   -2.2975749112E+00
   -2.3426940742E+00   -2.3618499127E+00   -2.3543248210E+00   -2.3199389469E+00
   -2.2590589808E+00   -2.1725936426E+00   -2.0619758810E+00   -1.9291321763E+00
   -1.7764396942E+00   -1.6066723732E+00   -1.4229373290E+00   -1.2286032156E+00
   -1.0272223967E+00   -8.2244892764E-01   -6.1795444456E-01   -4.1734408674E-01
   -2.2407454464E-01   -4.1376237455E-02    1.2781851915E-01    2.8093968172E-01
    4.1583453398E-01    5.3081242645E-01    6.2467826359E-01    6.9675407426E-01
    7.4688827170E-01    7.7545247261E-01    7.8332599475E-01    7.7186838771E-01
    7.4288057454E-01    6.9855539821E-01    6.4141858608E-01    5.7426137821E-01
    5.0006632233E-01    4.2192802428E-01    3.4297095669E-01    2.6626675635E-01
    1.9475375305E-01    1.3116216147E-01    7.7952280010E-02    3.7264485647E-02
    1.0878186560E-02    2.4525932459E-04   -2.3694518329E-06    0.0000000000E+00
    0.0000000000E+00    0.0000000000E+00    0.0000000000E+00    0.0000000000E+00
    0.0000000000E+00    0.0000000000E+00    0.0000000000E+00    0.0000000000E+00
    0.0000000000E+00    0.0000000000E+00    0.0000000000E+00    0.0000000000E+00
    0.0000000000E+00    0.0000000000E+00    0.0000000000E+00    0.0000000000E+00
    0.0000000000E+00    0.0000000000E+00    0.0000000000E+00    0.0000000000E+00
    0.0000000000E+00    0.0000000000E+00    0.0000000000E+00    0.0000000000E+00
 0. 0. 0. 0.
 0. 0. 0. 0.
 0. 0. 0. 0.
 0. 0. 0. 0.
 0. 0. 0. 0.
 0. 0. 0. 0.
 0. 0. 0. 0.
 0. 0. 0. 0.
 0. 0. 0. 0.
 0. 0. 0. 0.
 0. 0. 0. 0.
 0. 0. 0. 0.
 0. 0. 0. 0.
 0. 0. 0. 0.
 0. 0. 0. 0.
 0. 0. 0. 0.
 0. 0. 0. 0.
 0. 0. 0. 0.
 0. 0. 0. 0.
 0. 0. 0. 0.
 0. 0. 0. 0.
 0. 0. 0. 0.
 0. 0. 0. 0.
 0. 0. 0. 0.
 0. 0. 0. 0.
 0. 0. 0. 0.
 0. 0. 0. 0.
 0. 0. 0. 0.
 0. 0. 0. 0.
 0. 0. 0. 0.
 0. 0. 0. 0.
 0. 0. 0. 0.
 0. 0. 0. 0.
 0. 0. 0. 0.
 0. 0. 0. 0.
 0. 0. 0. 0.
 0. 0. 0. 0.
 0. 0. 0. 0.
 0. 0. 0. 0.
 0. 0. 0. 0.
 0. 0. 0. 0.
 0. 0. 0. 0.
 0. 0. 0. 0.
 0. 0. 0. 0.
 0. 0. 0. 0.
 0. 0. 0. 0.
 0. 0. 0. 0.
 0. 0. 0. 0.
 0. 0. 0. 0.
 0. 0. 0. 0.
 0. 0. 0. 0.
 0. 0. 0. 0.
 0. 0. 0. 0.
 0. 0. 0. 0.
 0. 0. 0. 0.
 0. 0. 0. 0.
 0. 0. 0. 0.
 0. 0. 0. 0.
 0. 0. 0. 0.
 0. 0. 0. 0.
 0. 0. 0. 0.
 0. 0. 0. 0.
 0. 0. 0. 0.
 0. 0. 0. 0.
 0. 0. 0. 0.
 0. 0. 0. 0.
 0. 0. 0. 0.
 0. 0. 0. 0.
 0. 0. 0. 0.
 0. 0. 0. 0.
 0. 0. 0. 0.
 0. 0. 0. 0.
 0. 0. 0. 0.
 0. 0. 0. 0.
 0. 0. 0. 0.
 0. 0. 0. 0.
 0. 0. 0. 0.
 0. 0. 0. 0.
 0. 0. 0. 0.
 0. 0. 0. 0.
 0. 0. 0. 0.
 0. 0. 0. 0.
 0. 0. 0. 0.
 0. 0. 0. 0.
 0. 0. 0. 0.
 0. 0. 0. 0.
 0. 0. 0. 0.
 0. 0. 0. 0.
 0. 0. 0. 0.
 0. 0. 0. 0.
 0. 0. 0. 0.
 0. 0. 0. 0.
 0. 0. 0. 0.
 0. 0. 0. 0.
 0. 0. 0. 0.
 0. 0. 0. 0.
 0. 0. 0. 0.
 0. 0. 0. 0.
 0. 0. 0. 0.
 0. 0. 0. 0.
 0. 0. 0. 0.
 0. 0. 0. 0.
 0. 0. 0. 0.
 0. 0. 0. 0.
 0. 0. 0. 0.
 0. 0. 0. 0.
 0. 0. 0. 0.
 0. 0. 0. 0.
 0. 0. 0. 0.
 0. 0. 0. 0.
 0. 0. 0. 0.
 0. 0. 0. 0.
 0. 0. 0. 0.
 0. 0. 0. 0.
 0. 0. 0. 0.
 0. 0. 0. 0.
 0. 0. 0. 0.
 0. 0. 0. 0.
 0. 0. 0. 0.
 0. 0. 0. 0.
 0. 0. 0. 0.
 0. 0. 0. 0.
 0. 0. 0. 0.
 0. 0. 0. 0.
 0. 0. 0. 0.
 0. 0. 0. 0.
 0. 0. 0. 0.
 0. 0. 0. 0.
 0. 0. 0. 0.
 0. 0. 0. 0.
 0. 0. 0. 0.
 0. 0. 0. 0.
 0. 0. 0. 0.
 0. 0. 0. 0.
 0. 0. 0. 0.
 0. 0. 0. 0.
 0. 0. 0. 0.
 0. 0. 0. 0.
 0. 0. 0. 0.
 0. 0. 0. 0.
 0. 0. 0. 0.
 0. 0. 0. 0.
 0. 0. 0. 0.
 0. 0. 0. 0.
 0. 0. 0. 0.
 0. 0. 0. 0.
 0. 0. 0. 0.
 0. 0. 0. 0.
 0. 0. 0. 0.
 0. 0. 0. 0.
 0. 0. 0. 0.
 0. 0. 0. 0.
 0. 0. 0. 0.
 0. 0. 0. 0.
 0. 0. 0. 0.
 0. 0. 0. 0.
 0. 0. 0. 0.
 0. 0. 0. 0.
 0. 0. 0. 0.
 0. 0. 0. 0.
 0. 0. 0. 0.
 0. 0. 0. 0.
 0. 0. 0. 0.
 0. 0. 0. 0.
 0. 0. 0. 0.
 0. 0. 0. 0.
 0. 0. 0. 0.
 0. 0. 0. 0.
 0. 0. 0. 0.
 0. 0. 0. 0.
 0. 0. 0. 0.
 0. 0. 0. 0.
 0. 0. 0. 0.
 0. 0. 0. 0.
 0. 0. 0. 0.
 0. 0. 0. 0.
 0. 0. 0. 0.
 0. 0. 0. 0.
 0. 0. 0. 0.
 0. 0. 0. 0.
 0. 0. 0. 0.
 0. 0. 0. 0.
 0. 0. 0. 0.
 0. 0. 0. 0.
 0. 0. 0. 0.
 0. 0. 0. 0.
 0. 0. 0. 0.
 0. 0. 0. 0.
 0. 0. 0. 0.
 0. 0.
   </PP_BETA.5>
   <PP_DIJ type="real"  size="  25" columns="4">
    1.2805464212E+01    0.0000000000E+00    0.0000000000E+00    0.0000000000E+00
    0.0000000000E+00    0.0000000000E+00    1.7423432922E+00    0.0000000000E+00
    0.0000000000E+00    0.0000000000E+00    0.0000000000E+00    0.0000000000E+00
   -9.1754846467E+00    0.0000000000E+00    0.0000000000E+00    0.0000000000E+00
    0.0000000000E+00    0.0000000000E+00   -2.1772999577E+00    0.0000000000E+00
    0.0000000000E+00    0.0000000000E+00    0.0000000000E+00    0.0000000000E+00
   -2.9765316960E+00
   </PP_DIJ>
 </PP_NONLOCAL>
 <PP_PSWFC>
   <PP_CHI.1
       type="real"
       size=" 910"
       columns="4"
       index="1"
       occupation=" 2.000"
       pseudo_energy="   -0.1860655421E+01"
       label="2S"
       l="0" >
   -1.2515544157E-12    1.3613534754E-02    2.7229339942E-02    4.0849662802E-02
    5.4476704250E-02    6.8112595903E-02    8.1759377320E-02    9.5418973531E-02
    1.0909317294E-01    1.2278360565E-01    1.3649172235E-01    1.5021877373E-01
    1.6396579064E-01    1.7773356494E-01    1.9152263120E-01    2.0533324933E-01
    2.1916538817E-01    2.3301871015E-01    2.4689255708E-01    2.6078593720E-01
    2.7469751350E-01    2.8862559338E-01    3.0256811977E-01    3.1652266378E-01
    3.3048641883E-01    3.4445619649E-01    3.5842842386E-01    3.7239914283E-01
    3.8636401086E-01    4.0031830374E-01    4.1425692001E-01    4.2817438716E-01
    4.4206486975E-01    4.5592217916E-01    4.6973978519E-01    4.8351082940E-01
    4.9722814005E-01    5.1088424876E-01    5.2447140868E-01    5.3798161418E-01
    5.5140662192E-01    5.6473797323E-01    5.7796701772E-01    5.9108493798E-01
    6.0408277517E-01    6.1695145557E-01    6.2968181775E-01    6.4226464033E-01
    6.5469067015E-01    6.6695065067E-01    6.7903535061E-01    6.9093559232E-01
    7.0264228021E-01    7.1414642865E-01    7.2543918947E-01    7.3651187888E-01
    7.4735600358E-01    7.5796328597E-01    7.6832568828E-01    7.7843543579E-01
    7.8828503899E-01    7.9786731456E-01    8.0717540505E-01    8.1620279719E-01
    8.2494333880E-01    8.3339125420E-01    8.4154115803E-01    8.4938806740E-01
    8.5692741243E-01    8.6415504518E-01    8.7106724701E-01    8.7766073441E-01
    8.8393266328E-01    8.8988063170E-01    8.9550268135E-01    9.0079729744E-01
    9.0576340739E-01    9.1040037822E-01    9.1470801278E-01    9.1868654482E-01
    9.2233663306E-01    9.2565935428E-01    9.2865619547E-01    9.3132904523E-01
    9.3368018437E-01    9.3571227581E-01    9.3742835388E-01    9.3883181309E-01
    9.3992639631E-01    9.4071618255E-01    9.4120557431E-01    9.4139928455E-01
    9.4130232333E-01    9.4091998413E-01    9.4025782988E-01    9.3932167871E-01
    9.3811758953E-01    9.3665184720E-01    9.3493094763E-01    9.3296158260E-01
    9.3075062427E-01    9.2830510960E-01    9.2563222445E-01    9.2273928754E-01
    9.1963373406E-01    9.1632309925E-01    9.1281500165E-01    9.0911712618E-01
    9.0523720708E-01    9.0118301066E-01    8.9696231795E-01    8.9258290719E-01
    8.8805253629E-01    8.8337892530E-01    8.7856973877E-01    8.7363256831E-01
    8.6857491518E-01    8.6340417306E-01    8.5812761111E-01    8.5275235728E-01
    8.4728538201E-01    8.4173348240E-01    8.3610326685E-01    8.3040114035E-01
    8.2463329042E-01    8.1880567380E-01    8.1292400404E-01    8.0699373965E-01
    8.0102007311E-01    7.9500792102E-01    7.8896191538E-01    7.8288639595E-01
    7.7678540377E-01    7.7066267594E-01    7.6452164153E-01    7.5836541882E-01
    7.5219681640E-01    7.4601839764E-01    7.3983260655E-01    7.3364179353E-01
    7.2744821845E-01    7.2125405340E-01    7.1506138533E-01    7.0887221860E-01
    7.0268847751E-01    6.9651200883E-01    6.9034458416E-01    6.8418790215E-01
    6.7804359089E-01    6.7191321006E-01    6.6579825309E-01    6.5970014922E-01
    6.5362026559E-01    6.4755990918E-01    6.4152032871E-01    6.3550271656E-01
    6.2950821054E-01    6.2353789567E-01    6.1759280590E-01    6.1167392577E-01
    6.0578219202E-01    5.9991849517E-01    5.9408368104E-01    5.8827855225E-01
    5.8250386963E-01    5.7676035361E-01    5.7104868563E-01    5.6536950938E-01
    5.5972343216E-01    5.5411102602E-01    5.4853282905E-01    5.4298934651E-01
    5.3748105194E-01    5.3200838829E-01    5.2657176899E-01    5.2117157892E-01
    5.1580817551E-01    5.1048188961E-01    5.0519302651E-01    4.9994186679E-01
    4.9472866727E-01    4.8955366180E-01    4.8441706215E-01    4.7931905877E-01
    4.7425982160E-01    4.6923950084E-01    4.6425822764E-01    4.5931611484E-01
    4.5441325767E-01    4.4954973440E-01    4.4472560699E-01    4.3994092173E-01
    4.3519570982E-01    4.3048998802E-01    4.2582375914E-01    4.2119701265E-01
    4.1660972523E-01    4.1206186122E-01    4.0755337319E-01    4.0308420241E-01
    3.9865427930E-01    3.9426352391E-01    3.8991184637E-01    3.8559914731E-01
    3.8132531825E-01    3.7709024207E-01    3.7289379332E-01    3.6873583867E-01
    3.6461623722E-01    3.6053484091E-01    3.5649149480E-01    3.5248603747E-01
    3.4851830128E-01    3.4458811274E-01    3.4069529275E-01    3.3683965696E-01
    3.3302101601E-01    3.2923917580E-01    3.2549393779E-01    3.2178509922E-01
    3.1811245338E-01    3.1447578985E-01    3.1087489473E-01    3.0730955085E-01
    3.0377953801E-01    3.0028463318E-01    2.9682461069E-01    2.9339924247E-01
    2.9000829818E-01    2.8665154545E-01    2.8332874999E-01    2.8003967585E-01
    2.7678408549E-01    2.7356174002E-01    2.7037239929E-01    2.6721582209E-01
    2.6409176624E-01    2.6099998876E-01    2.5794024601E-01    2.5491229378E-01
    2.5191588744E-01    2.4895078203E-01    2.4601673241E-01    2.4311349332E-01
    2.4024081951E-01    2.3739846584E-01    2.3458618735E-01    2.3180373934E-01
    2.2905087752E-01    2.2632735797E-01    2.2363293735E-01    2.2096737284E-01
    2.1833042230E-01    2.1572184429E-01    2.1314139811E-01    2.1058884390E-01
    2.0806394265E-01    2.0556645623E-01    2.0309614750E-01    2.0065278025E-01
    1.9823611931E-01    1.9584593054E-01    1.9348198085E-01    1.9114403825E-01
    1.8883187184E-01    1.8654525184E-01    1.8428394957E-01    1.8204773750E-01
    1.7983638922E-01    1.7764967948E-01    1.7548738413E-01    1.7334928017E-01
    1.7123514570E-01    1.6914475997E-01    1.6707790329E-01    1.6503435709E-01
    1.6301390386E-01    1.6101632718E-01    1.5904141163E-01    1.5708894287E-01
    1.5515870753E-01    1.5325049327E-01    1.5136408871E-01    1.4949928343E-01
    1.4765586798E-01    1.4583363382E-01    1.4403237334E-01    1.4225187983E-01
    1.4049194749E-01    1.3875237140E-01    1.3703294753E-01    1.3533347273E-01
    1.3365374474E-01    1.3199356218E-01    1.3035272457E-01    1.2873103233E-01
    1.2712828683E-01    1.2554429035E-01    1.2397884616E-01    1.2243175852E-01
    1.2090283275E-01    1.1939187522E-01    1.1789869344E-01    1.1642309610E-01
    1.1496489314E-01    1.1352389581E-01    1.1209991674E-01    1.1069277003E-01
    1.0930227136E-01    1.0792823807E-01    1.0657048928E-01    1.0522884598E-01
    1.0390313123E-01    1.0259317021E-01    1.0129879044E-01    1.0001982188E-01
    9.8756097170E-02    9.7507451711E-02    9.6273723867E-02    9.5054755324E-02
    9.3850390881E-02    9.2660477270E-02    9.1484862336E-02    9.0323394898E-02
    8.9175924773E-02    8.8042302797E-02    8.6922380828E-02    8.5816011767E-02
    8.4723049561E-02    8.3643349216E-02    8.2576766806E-02    8.1523159483E-02
    8.0482385482E-02    7.9454304128E-02    7.8438775846E-02    7.7435662164E-02
    7.6444825718E-02    7.5466130259E-02    7.4499440656E-02    7.3544622899E-02
    7.2601544101E-02    7.1670072504E-02    7.0750077479E-02    6.9841429525E-02
    6.8944000275E-02    6.8057662494E-02    6.7182290077E-02    6.6317758053E-02
    6.5463942583E-02    6.4620720956E-02    6.3787971591E-02    6.2965574036E-02
    6.2153408960E-02    6.1351358159E-02    6.0559304545E-02    5.9777132150E-02
    5.9004726118E-02    5.8241972702E-02    5.7488759263E-02    5.6744974262E-02
    5.6010507259E-02    5.5285248907E-02    5.4569090946E-02    5.3861926199E-02
    5.3163648570E-02    5.2474153032E-02    5.1793335627E-02    5.1121093458E-02
    5.0457324684E-02    4.9801928513E-02    4.9154805197E-02    4.8515856024E-02
    4.7884983314E-02    4.7262090411E-02    4.6647081675E-02    4.6039862480E-02
    4.5440339201E-02    4.4848419212E-02    4.4264010877E-02    4.3687023542E-02
    4.3117367531E-02    4.2554954135E-02    4.1999695608E-02    4.1451505158E-02
    4.0910296938E-02    4.0375986043E-02    3.9848488500E-02    3.9327721259E-02
    3.8813602188E-02    3.8306050066E-02    3.7804984573E-02    3.7310326283E-02
    3.6821996657E-02    3.6339918036E-02    3.5864013634E-02    3.5394207527E-02
    3.4930424649E-02    3.4472590782E-02    3.4020632550E-02    3.3574477412E-02
    3.3134053650E-02    3.2699290368E-02    3.2270117480E-02    3.1846465703E-02
    3.1428266550E-02    3.1015452324E-02    3.0607956107E-02    3.0205711755E-02
    2.9808653892E-02    2.9416717899E-02    2.9029839909E-02    2.8647956798E-02
    2.8271006181E-02    2.7898926400E-02    2.7531656520E-02    2.7169136321E-02
    2.6811306291E-02    2.6458107618E-02    2.6109482185E-02    2.5765372560E-02
    2.5425721990E-02    2.5090474396E-02    2.4759574363E-02    2.4432967136E-02
    2.4110598611E-02    2.3792415328E-02    2.3478364468E-02    2.3168393840E-02
    2.2862451880E-02    2.2560487641E-02    2.2262450789E-02    2.1968291594E-02
    2.1677960923E-02    2.1391410239E-02    2.1108591588E-02    2.0829457594E-02
    2.0553961458E-02    2.0282056945E-02    2.0013698381E-02    1.9748840647E-02
    1.9487439173E-02    1.9229449930E-02    1.8974829426E-02    1.8723534700E-02
    1.8475523314E-02    1.8230753351E-02    1.7989183404E-02    1.7750772577E-02
    1.7515480471E-02    1.7283267186E-02    1.7054093311E-02    1.6827919921E-02
    1.6604708568E-02    1.6384421279E-02    1.6167020549E-02    1.5952469337E-02
    1.5740731059E-02    1.5531769584E-02    1.5325549227E-02    1.5122034746E-02
    1.4921191337E-02    1.4722984626E-02    1.4527380668E-02    1.4334345939E-02
    1.4143847333E-02    1.3955852155E-02    1.3770328118E-02    1.3587243339E-02
    1.3406566331E-02    1.3228266003E-02    1.3052311650E-02    1.2878672953E-02
    1.2707319973E-02    1.2538223145E-02    1.2371353274E-02    1.2206681535E-02
    1.2044179462E-02    1.1883818946E-02    1.1725572235E-02    1.1569411924E-02
    1.1415310953E-02    1.1263242604E-02    1.1113180496E-02    1.0965098581E-02
    1.0818971138E-02    1.0674772774E-02    1.0532478415E-02    1.0392063306E-02
    1.0253503003E-02    1.0116773374E-02    9.9818505918E-03    9.8487111318E-03
    9.7173317679E-03    9.5876895687E-03    9.4597618946E-03    9.3335263934E-03
    9.2089609978E-03    9.0860439208E-03    8.9647536534E-03    8.8450689604E-03
    8.7269688774E-03    8.6104327074E-03    8.4954400177E-03    8.3819706364E-03
    8.2700046495E-03    8.1595223973E-03    8.0505044719E-03    7.9429317134E-03
    7.8367852076E-03    7.7320462822E-03    7.6286965044E-03    7.5267176777E-03
    7.4260918391E-03    7.3268012561E-03    7.2288284239E-03    7.1321560624E-03
    7.0367671138E-03    6.9426447396E-03    6.8497723178E-03    6.7581334405E-03
    6.6677119109E-03    6.5784917408E-03    6.4904571482E-03    6.4035925544E-03
    6.3178825817E-03    6.2333120509E-03    6.1498659785E-03    6.0675295747E-03
    5.9862882408E-03    5.9061275665E-03    5.8270333282E-03    5.7489914858E-03
    5.6719881814E-03    5.5960097360E-03    5.5210426481E-03    5.4470735909E-03
    5.3740894104E-03    5.3020771229E-03    5.2310239135E-03    5.1609171332E-03
    5.0917442972E-03    5.0234930831E-03    4.9561513281E-03    4.8897070277E-03
    4.8241483333E-03    4.7594635504E-03    4.6956411367E-03    4.6326696997E-03
    4.5705379956E-03    4.5092349268E-03    4.4487495400E-03    4.3890710250E-03
    4.3301887121E-03    4.2720920710E-03    4.2147707084E-03    4.1582143669E-03
    4.1024129226E-03    4.0473563840E-03    3.9930348899E-03    3.9394387079E-03
    3.8865582328E-03    3.8343839849E-03    3.7829066083E-03    3.7321168695E-03
    3.6820056560E-03    3.6325639740E-03    3.5837829479E-03    3.5356538181E-03
    3.4881679394E-03    3.4413167804E-03    3.3950919210E-03    3.3494850516E-03
    3.3044879716E-03    3.2600925877E-03    3.2162909130E-03    3.1730750653E-03
    3.1304372657E-03    3.0883698375E-03    3.0468652048E-03    3.0059158911E-03
    2.9655145181E-03    2.9256538046E-03    2.8863265650E-03    2.8475257080E-03
    2.8092442357E-03    2.7714752421E-03    2.7342119123E-03    2.6974475209E-03
    2.6611754308E-03    2.6253890926E-03    2.5900820429E-03    2.5552479036E-03
    2.5208803806E-03    2.4869732624E-03    2.4535204198E-03    2.4205158042E-03
    2.3879534466E-03    2.3558274569E-03    2.3241320226E-03    2.2928614080E-03
    2.2620099530E-03    2.2315720720E-03    2.2015422535E-03    2.1719150585E-03
    2.1426851200E-03    2.1138471417E-03    2.0853958974E-03    2.0573262299E-03
    2.0296330504E-03    2.0023113368E-03    1.9753561341E-03    1.9487625522E-03
    1.9225257662E-03    1.8966410145E-03    1.8711035991E-03    1.8459088836E-03
    1.8210522933E-03    1.7965293140E-03    1.7723354913E-03    1.7484664297E-03
    1.7249177919E-03    1.7016852983E-03    1.6787647257E-03    1.6561519070E-03
    1.6338427304E-03    1.6118331384E-03    1.5901191277E-03    1.5686967476E-03
    1.5475621002E-03    1.5267113390E-03    1.5061406687E-03    1.4858463445E-03
    1.4658246709E-03    1.4460720019E-03    1.4265847396E-03    1.4073593340E-03
    1.3883922822E-03    1.3696801279E-03    1.3512194607E-03    1.3330069153E-03
    1.3150391715E-03    1.2973129529E-03    1.2798250269E-03    1.2625722036E-03
    1.2455513358E-03    1.2287593180E-03    1.2121930859E-03    1.1958496162E-03
    1.1797259257E-03    1.1638190709E-03    1.1481261474E-03    1.1326442896E-03
    1.1173706700E-03    1.1023024986E-03    1.0874370228E-03    1.0727715264E-03
    1.0583033295E-03    1.0440297880E-03    1.0299482929E-03    1.0160562698E-03
    1.0023511790E-03    9.8883051426E-04    9.7549180301E-04    9.6233260550E-04
    9.4935051456E-04    9.3654315510E-04    9.2390818370E-04    9.1144328820E-04
    8.9914618728E-04    8.8701463005E-04    8.7504639566E-04    8.6323929287E-04
    8.5159115970E-04    8.4009986303E-04    8.2876329818E-04    8.1757938860E-04
    8.0654608546E-04    7.9566136726E-04    7.8492323951E-04    7.7432973437E-04
    7.6387891026E-04    7.5356885155E-04    7.4339766819E-04    7.3336349541E-04
    7.2346449331E-04    7.1369884663E-04    7.0406476433E-04    6.9456047933E-04
    6.8518424817E-04    6.7593435069E-04    6.6680908974E-04    6.5780679086E-04
    6.4892580197E-04    6.4016449311E-04    6.3152125611E-04    6.2299450430E-04
    6.1458267225E-04    6.0628421547E-04    5.9809761015E-04    5.9002135286E-04
    5.8205396028E-04    5.7419396896E-04    5.6643993504E-04    5.5879043397E-04
    5.5124406030E-04    5.4379942737E-04    5.3645516711E-04    5.2920992976E-04
    5.2206238363E-04    5.1501121489E-04    5.0805512729E-04    5.0119284195E-04
    4.9442309712E-04    4.8774464796E-04    4.8115626631E-04    4.7465674047E-04
    4.6824487498E-04    4.6191949038E-04    4.5567942307E-04    4.4952352499E-04
    4.4345066351E-04    4.3745972118E-04    4.3154959552E-04    4.2571919884E-04
    4.1996745803E-04    4.1429331440E-04    4.0869572342E-04    4.0317365459E-04
    3.9772609124E-04    3.9235203033E-04    3.8705048228E-04    3.8182047079E-04
    3.7666103264E-04    3.7157121757E-04    3.6655008806E-04    3.6159671915E-04
    3.5671019832E-04    3.5188962529E-04    3.4713411188E-04    3.4244278181E-04
    3.3781477058E-04    3.3324922529E-04    3.2874530450E-04    3.2430217806E-04
    3.1991902698E-04    3.1559504327E-04    3.1132942977E-04    3.0712140005E-04
    3.0297017823E-04    2.9887499888E-04    2.9483510681E-04    2.9084975702E-04
    2.8691821448E-04    2.8303975408E-04    2.7921366041E-04    2.7543922770E-04
    2.7171575967E-04    2.6804256938E-04    2.6441897914E-04    2.6084432035E-04
    2.5731793341E-04    2.5383916760E-04    2.5040738092E-04    2.4702194003E-04
    2.4368222009E-04    2.4038760465E-04    2.3713748558E-04    2.3393126291E-04
    2.3076834474E-04    2.2764814714E-04    2.2457009401E-04    2.2153361703E-04
    2.1853815550E-04    2.1558315628E-04    2.1266807367E-04    2.0979236930E-04
    2.0695551205E-04    2.0415697794E-04    2.0139625007E-04    1.9867281845E-04
    1.9598617998E-04    1.9333583834E-04    1.9072130387E-04    1.8814209350E-04
    1.8559773067E-04    1.8308774525E-04    1.8061167341E-04    1.7816905758E-04
    1.7575944634E-04    1.7338239437E-04    1.7103746231E-04    1.6872421675E-04
    1.6644223010E-04    1.6419108053E-04    1.6197035189E-04    1.5977963363E-04
    1.5761852074E-04    1.5548661365E-04    1.5338351818E-04    1.5130884547E-04
    1.4926221188E-04    1.4724323895E-04    1.4525155330E-04    1.4328678661E-04
    1.4134857549E-04    1.3943656147E-04    1.3755039090E-04    1.3568971490E-04
    1.3385418927E-04    1.3204347448E-04    1.3025723556E-04    1.2849514205E-04
    1.2675686795E-04    1.2504209164E-04    1.2335049586E-04    1.2168176761E-04
    1.2003559810E-04    1.1841168272E-04    1.1680972097E-04    1.1522941637E-04
    1.1367047646E-04    1.1213261273E-04    1.1061554054E-04    1.0911897910E-04
    1.0764265140E-04    1.0618628416E-04    1.0474960781E-04    1.0333235638E-04
    1.0193426751E-04    1.0055508236E-04    9.9194545611E-05    9.7852405353E-05
    9.6528413092E-05    9.5222323681E-05    9.3933895280E-05    9.2662889311E-05
    9.1409070412E-05    9.0172206398E-05    8.8952068216E-05    8.7748429900E-05
    8.6561068536E-05    8.5389764215E-05    8.4234299994E-05    8.3094461859E-05
    8.1970038682E-05    8.0860822183E-05    7.9766606894E-05    7.8687190117E-05
    7.7622371892E-05    7.6571954955E-05    7.5535744703E-05    7.4513549162E-05
    7.3505178947E-05    7.2510447228E-05    7.1529169697E-05    7.0561164535E-05
    6.9606252375E-05    6.8664256270E-05    6.7735001664E-05    6.6818316355E-05
    6.5914030467E-05    6.5021976415E-05    6.4141988878E-05    6.3273904765E-05
    6.2417563188E-05    6.1572805430E-05    6.0739474917E-05    5.9917417189E-05
    5.9106479872E-05    5.8306512647E-05    5.7517367226E-05    5.6738897323E-05
    5.5970958628E-05    5.5213408778E-05    5.4466107333E-05    5.3728915749E-05
    5.3001697354E-05    5.2284317319E-05    5.1576642639E-05    5.0878542103E-05
    5.0189886273E-05    4.9510547457E-05    4.8840399691E-05    4.8179318709E-05
    4.7527181925E-05    4.6883868407E-05    4.6249258860E-05    4.5623235596E-05
    4.5005682520E-05    4.4396485102E-05    4.3795530362E-05    4.3202706844E-05
    4.2617904599E-05    4.2041015163E-05    4.1471931535E-05    4.0910548164E-05
    4.0356760920E-05    3.9810467083E-05    3.9271565319E-05    3.8739955665E-05
    3.8215539507E-05    3.7698219564E-05    3.7187899868E-05    3.6684485750E-05
    3.6187883818E-05    3.5698001942E-05    3.5214749240E-05    3.4738036053E-05
    3.4267773938E-05    3.3803875645E-05
   </PP_CHI.1>
   <PP_CHI.2
       type="real"
       size=" 910"
       columns="4"
       index="2"
       occupation=" 4.000"
       pseudo_energy="   -0.6834394218E+00"
       label="2P"
       l="1" >
    2.9659420753E-11    4.5367756701E-04    1.8135857013E-03    4.0763545525E-03
    7.2363805223E-03    1.1285845439E-02    1.6214743298E-02    2.2010914456E-02
    2.8660087150E-02    3.6145926177E-02    4.4450088530E-02    5.3552285786E-02
    6.3430352980E-02    7.4060323704E-02    8.5416511123E-02    9.7471594587E-02
    1.1019671149E-01    1.2356155399E-01    1.3753447027E-01    1.5208256981E-01
    1.6717183237E-01    1.8276722013E-01    1.9883279268E-01    2.1533182420E-01
    2.3222692254E-01    2.4948014961E-01    2.6705314259E-01    2.8490723558E-01
    3.0300358100E-01    3.2130327051E-01    3.3976745472E-01    3.5835746135E-01
    3.7703491134E-01    3.9576183246E-01    4.1450076998E-01    4.3321489388E-01
    4.5186810238E-01    4.7042512121E-01    4.8885159837E-01    5.0711419397E-01
    5.2518066492E-01    5.4301994409E-01    5.6060221367E-01    5.7789897268E-01
    5.9488309819E-01    6.1152890023E-01    6.2781217024E-01    6.4371022298E-01
    6.5920193174E-01    6.7426775698E-01    6.8888976823E-01    7.0305165950E-01
    7.1673875801E-01    7.2993802662E-01    7.4263805988E-01    7.5482907396E-01
    7.6650289065E-01    7.7765291566E-01    7.8827411144E-01    7.9836296470E-01
    8.0791744903E-01    8.1693698280E-01    8.2542238275E-01    8.3337581352E-01
    8.4080073360E-01    8.4770183794E-01    8.5408499761E-01    8.5995719694E-01
    8.6532646853E-01    8.7020182635E-01    8.7459319735E-01    8.7851135207E-01
    8.8196783437E-01    8.8497489078E-01    8.8754539975E-01    8.8969280115E-01
    8.9143102625E-01    8.9277442857E-01    8.9373771576E-01    8.9433588291E-01
    8.9458414736E-01    8.9449788542E-01    8.9409257096E-01    8.9338371639E-01
    8.9238681581E-01    8.9111729078E-01    8.8959043872E-01    8.8782138402E-01
    8.8582503201E-01    8.8361602581E-01    8.8120870623E-01    8.7861707460E-01
    8.7585475868E-01    8.7293498162E-01    8.6987053397E-01    8.6667374875E-01
    8.6335647949E-01    8.5993008128E-01    8.5640539481E-01    8.5279273316E-01
    8.4910187157E-01    8.4534203982E-01    8.4152191736E-01    8.3764963103E-01
    8.3373275525E-01    8.2977831466E-01    8.2579278903E-01    8.2178212041E-01
    8.1775172238E-01    8.1370649131E-01    8.0965081947E-01    8.0558860999E-01
    8.0152329337E-01    7.9745784560E-01    7.9339480772E-01    7.8933630660E-01
    7.8528407695E-01    7.8123948437E-01    7.7720354926E-01    7.7317697160E-01
    7.6916015635E-01    7.6515323935E-01    7.6115611366E-01    7.5716845612E-01
    7.5318975404E-01    7.4921933192E-01    7.4525637794E-01    7.4129997031E-01
    7.3734910322E-01    7.3340271227E-01    7.2945969909E-01    7.2551895529E-01
    7.2157938548E-01    7.1763992912E-01    7.1369958144E-01    7.0975741288E-01
    7.0581258731E-01    7.0186437871E-01    6.9791218633E-01    6.9395554815E-01
    6.8999415271E-01    6.8602784907E-01    6.8205665492E-01    6.7808076290E-01
    6.7410054483E-01    6.7011655409E-01    6.6612952424E-01    6.6214031401E-01
    6.5814978136E-01    6.5415875534E-01    6.5016803659E-01    6.4617839818E-01
    6.4219058643E-01    6.3820532169E-01    6.3422329914E-01    6.3024518952E-01
    6.2627163988E-01    6.2230327429E-01    6.1834069453E-01    6.1438448075E-01
    6.1043519219E-01    6.0649336767E-01    6.0255952636E-01    5.9863416829E-01
    5.9471777496E-01    5.9081080990E-01    5.8691371920E-01    5.8302693209E-01
    5.7915086139E-01    5.7528590406E-01    5.7143244166E-01    5.6759084083E-01
    5.6376145375E-01    5.5994461857E-01    5.5614065986E-01    5.5234988902E-01
    5.4857260466E-01    5.4480909303E-01    5.4105962839E-01    5.3732447337E-01
    5.3360387932E-01    5.2989808668E-01    5.2620732530E-01    5.2253181480E-01
    5.1887176481E-01    5.1522737538E-01    5.1159883718E-01    5.0798633187E-01
    5.0439003230E-01    5.0081010286E-01    4.9724669970E-01    4.9369997097E-01
    4.9017005710E-01    4.8665709104E-01    4.8316119846E-01    4.7968249799E-01
    4.7622110146E-01    4.7277711407E-01    4.6935063464E-01    4.6594175575E-01
    4.6255056400E-01    4.5917714014E-01    4.5582155928E-01    4.5248389105E-01
    4.4916419976E-01    4.4586254461E-01    4.4257897979E-01    4.3931355466E-01
    4.3606631391E-01    4.3283729767E-01    4.2962654169E-01    4.2643407745E-01
    4.2325993227E-01    4.2010412950E-01    4.1696668857E-01    4.1384762516E-01
    4.1074695128E-01    4.0766467541E-01    4.0460080258E-01    4.0155533449E-01
    3.9852826962E-01    3.9551960328E-01    3.9252932778E-01    3.8955743245E-01
    3.8660390377E-01    3.8366872542E-01    3.8075187842E-01    3.7785334114E-01
    3.7497308942E-01    3.7211109666E-01    3.6926733383E-01    3.6644176960E-01
    3.6363437039E-01    3.6084510043E-01    3.5807392181E-01    3.5532079458E-01
    3.5258567678E-01    3.4986852451E-01    3.4716929197E-01    3.4448793155E-01
    3.4182439385E-01    3.3917862775E-01    3.3655058046E-01    3.3394019756E-01
    3.3134742306E-01    3.2877219944E-01    3.2621446770E-01    3.2367416740E-01
    3.2115123672E-01    3.1864561249E-01    3.1615723023E-01    3.1368602420E-01
    3.1123192746E-01    3.0879487186E-01    3.0637478816E-01    3.0397160597E-01
    3.0158525389E-01    2.9921565949E-01    2.9686274935E-01    2.9452644914E-01
    2.9220668362E-01    2.8990337670E-01    2.8761645146E-01    2.8534583021E-01
    2.8309143454E-01    2.8085318531E-01    2.7863100273E-01    2.7642480640E-01
    2.7423451532E-01    2.7206004797E-01    2.6990132229E-01    2.6775825580E-01
    2.6563076557E-01    2.6351876826E-01    2.6142218023E-01    2.5934091750E-01
    2.5727489580E-01    2.5522403068E-01    2.5318823743E-01    2.5116743122E-01
    2.4916152708E-01    2.4717043996E-01    2.4519408473E-01    2.4323237627E-01
    2.4128522944E-01    2.3935255918E-01    2.3743428047E-01    2.3553030840E-01
    2.3364055820E-01    2.3176494525E-01    2.2990338512E-01    2.2805579356E-01
    2.2622208657E-01    2.2440218037E-01    2.2259599145E-01    2.2080343659E-01
    2.1902443283E-01    2.1725889751E-01    2.1550674828E-01    2.1376790308E-01
    2.1204228016E-01    2.1032979808E-01    2.0863037567E-01    2.0694393208E-01
    2.0527038669E-01    2.0360965915E-01    2.0196166934E-01    2.0032633733E-01
    1.9870358336E-01    1.9709332782E-01    1.9549549117E-01    1.9390999390E-01
    1.9233675653E-01    1.9077569947E-01    1.8922674301E-01    1.8768980724E-01
    1.8616481197E-01    1.8465167664E-01    1.8315032027E-01    1.8166066129E-01
    1.8018261760E-01    1.7871610709E-01    1.7726104804E-01    1.7581735916E-01
    1.7438495958E-01    1.7296376888E-01    1.7155370706E-01    1.7015469458E-01
    1.6876665231E-01    1.6738950157E-01    1.6602316411E-01    1.6466756214E-01
    1.6332261828E-01    1.6198825561E-01    1.6066439763E-01    1.5935096830E-01
    1.5804789200E-01    1.5675509357E-01    1.5547249825E-01    1.5420003177E-01
    1.5293762024E-01    1.5168519026E-01    1.5044266882E-01    1.4920998338E-01
    1.4798706181E-01    1.4677383243E-01    1.4557022398E-01    1.4437616565E-01
    1.4319158703E-01    1.4201641818E-01    1.4085058955E-01    1.3969403205E-01
    1.3854667698E-01    1.3740845611E-01    1.3627930159E-01    1.3515914604E-01
    1.3404792245E-01    1.3294556427E-01    1.3185200536E-01    1.3076717999E-01
    1.2969102284E-01    1.2862346903E-01    1.2756445408E-01    1.2651391391E-01
    1.2547178487E-01    1.2443800372E-01    1.2341250761E-01    1.2239523411E-01
    1.2138612120E-01    1.2038510724E-01    1.1939213103E-01    1.1840713173E-01
    1.1743004893E-01    1.1646082259E-01    1.1549939310E-01    1.1454570121E-01
    1.1359968808E-01    1.1266129526E-01    1.1173046469E-01    1.1080713869E-01
    1.0989125997E-01    1.0898277163E-01    1.0808161715E-01    1.0718774038E-01
    1.0630108556E-01    1.0542159730E-01    1.0454922060E-01    1.0368390082E-01
    1.0282558369E-01    1.0197421533E-01    1.0112974221E-01    1.0029211116E-01
    9.9461269409E-02    9.8637164516E-02    9.7819744416E-02    9.7008957402E-02
    9.6204752125E-02    9.5407077592E-02    9.4615883165E-02    9.3831118559E-02
    9.3052733839E-02    9.2280679419E-02    9.1514906061E-02    9.0755364874E-02
    9.0002007308E-02    8.9254785157E-02    8.8513650553E-02    8.7778555969E-02
    8.7049454214E-02    8.6326298428E-02    8.5609042090E-02    8.4897639005E-02
    8.4192043310E-02    8.3492209469E-02    8.2798092270E-02    8.2109646828E-02
    8.1426828578E-02    8.0749593274E-02    8.0077896992E-02    7.9411696121E-02
    7.8750947368E-02    7.8095607750E-02    7.7445634598E-02    7.6800985550E-02
    7.6161618555E-02    7.5527491863E-02    7.4898564033E-02    7.4274793923E-02
    7.3656140692E-02    7.3042563800E-02    7.2434023001E-02    7.1830478346E-02
    7.1231890179E-02    7.0638219135E-02    7.0049426139E-02    6.9465472406E-02
    6.8886319434E-02    6.8311929009E-02    6.7742263198E-02    6.7177284349E-02
    6.6616955091E-02    6.6061238328E-02    6.5510097243E-02    6.4963495291E-02
    6.4421396201E-02    6.3883763971E-02    6.3350562870E-02    6.2821757433E-02
    6.2297312462E-02    6.1777193021E-02    6.1261364440E-02    6.0749792304E-02
    6.0242442463E-02    5.9739281021E-02    5.9240274337E-02    5.8745389026E-02
    5.8254591954E-02    5.7767850239E-02    5.7285131247E-02    5.6806402591E-02
    5.6331632132E-02    5.5860787972E-02    5.5393838459E-02    5.4930752179E-02
    5.4471497959E-02    5.4016044864E-02    5.3564362194E-02    5.3116419485E-02
    5.2672186505E-02    5.2231633254E-02    5.1794729962E-02    5.1361447086E-02
    5.0931755312E-02    5.0505625550E-02    5.0083028934E-02    4.9663936821E-02
    4.9248320788E-02    4.8836152630E-02    4.8427404362E-02    4.8022048215E-02
    4.7620056632E-02    4.7221402273E-02    4.6826058007E-02    4.6433996915E-02
    4.6045192286E-02    4.5659617616E-02    4.5277246609E-02    4.4898053170E-02
    4.4522011411E-02    4.4149095644E-02    4.3779280380E-02    4.3412540330E-02
    4.3048850403E-02    4.2688185703E-02    4.2330521530E-02    4.1975833376E-02
    4.1624096925E-02    4.1275288053E-02    4.0929382823E-02    4.0586357487E-02
    4.0246188485E-02    3.9908852439E-02    3.9574326158E-02    3.9242586630E-02
    3.8913611029E-02    3.8587376704E-02    3.8263861185E-02    3.7943042181E-02
    3.7624897573E-02    3.7309405420E-02    3.6996543954E-02    3.6686291577E-02
    3.6378626866E-02    3.6073528563E-02    3.5770975583E-02    3.5470947005E-02
    3.5173422075E-02    3.4878380205E-02    3.4585800969E-02    3.4295664104E-02
    3.4007949509E-02    3.3722637242E-02    3.3439707520E-02    3.3159140718E-02
    3.2880917367E-02    3.2605018155E-02    3.2331423921E-02    3.2060115660E-02
    3.1791074518E-02    3.1524281792E-02    3.1259718928E-02    3.0997367520E-02
    3.0737209311E-02    3.0479226190E-02    3.0223400190E-02    2.9969713489E-02
    2.9718148409E-02    2.9468687413E-02    2.9221313103E-02    2.8976008226E-02
    2.8732755661E-02    2.8491538432E-02    2.8252339693E-02    2.8015142738E-02
    2.7779930995E-02    2.7546688023E-02    2.7315397518E-02    2.7086043304E-02
    2.6858609337E-02    2.6633079702E-02    2.6409438613E-02    2.6187670413E-02
    2.5967759568E-02    2.5749690675E-02    2.5533448450E-02    2.5319017737E-02
    2.5106383501E-02    2.4895530829E-02    2.4686444930E-02    2.4479111132E-02
    2.4273514881E-02    2.4069641744E-02    2.3867477403E-02    2.3667007657E-02
    2.3468218421E-02    2.3271095723E-02    2.3075625708E-02    2.2881794630E-02
    2.2689588856E-02    2.2498994866E-02    2.2309999248E-02    2.2122588701E-02
    2.1936750030E-02    2.1752470151E-02    2.1569736083E-02    2.1388534955E-02
    2.1208853999E-02    2.1030680550E-02    2.0854002048E-02    2.0678806038E-02
    2.0505080162E-02    2.0332812168E-02    2.0161989900E-02    1.9992601304E-02
    1.9824634425E-02    1.9658077405E-02    1.9492918483E-02    1.9329145995E-02
    1.9166748372E-02    1.9005714141E-02    1.8846031922E-02    1.8687690429E-02
    1.8530678470E-02    1.8374984942E-02    1.8220598835E-02    1.8067509230E-02
    1.7915705297E-02    1.7765176295E-02    1.7615911572E-02    1.7467900562E-02
    1.7321132788E-02    1.7175597859E-02    1.7031285468E-02    1.6888185394E-02
    1.6746287501E-02    1.6605581736E-02    1.6466058127E-02    1.6327706788E-02
    1.6190517910E-02    1.6054481770E-02    1.5919588721E-02    1.5785829199E-02
    1.5653193715E-02    1.5521672863E-02    1.5391257310E-02    1.5261937805E-02
    1.5133705171E-02    1.5006550305E-02    1.4880464183E-02    1.4755437853E-02
    1.4631462438E-02    1.4508529136E-02    1.4386629215E-02    1.4265754017E-02
    1.4145894955E-02    1.4027043515E-02    1.3909191251E-02    1.3792329788E-02
    1.3676450822E-02    1.3561546115E-02    1.3447607499E-02    1.3334626874E-02
    1.3222596207E-02    1.3111507531E-02    1.3001352946E-02    1.2892124618E-02
    1.2783814775E-02    1.2676415714E-02    1.2569919793E-02    1.2464319435E-02
    1.2359607124E-02    1.2255775409E-02    1.2152816900E-02    1.2050724267E-02
    1.1949490244E-02    1.1849107622E-02    1.1749569256E-02    1.1650868055E-02
    1.1552996993E-02    1.1455949099E-02    1.1359717460E-02    1.1264295222E-02
    1.1169675587E-02    1.1075851815E-02    1.0982817221E-02    1.0890565175E-02
    1.0799089105E-02    1.0708382491E-02    1.0618438869E-02    1.0529251827E-02
    1.0440815010E-02    1.0353122113E-02    1.0266166884E-02    1.0179943125E-02
    1.0094444687E-02    1.0009665475E-02    9.9255994426E-03    9.8422405958E-03
    9.7595829898E-03    9.6776207294E-03    9.5963479687E-03    9.5157589110E-03
    9.4358478076E-03    9.3566089581E-03    9.2780367098E-03    9.2001254571E-03
    9.1228696413E-03    9.0462637504E-03    8.9703023183E-03    8.8949799247E-03
    8.8202911946E-03    8.7462307981E-03    8.6727934498E-03    8.5999739086E-03
    8.5277669772E-03    8.4561675020E-03    8.3851703722E-03    8.3147705202E-03
    8.2449629207E-03    8.1757425904E-03    8.1071045877E-03    8.0390440128E-03
    7.9715560064E-03    7.9046357504E-03    7.8382784669E-03    7.7724794179E-03
    7.7072339053E-03    7.6425372704E-03    7.5783848935E-03    7.5147721937E-03
    7.4516946284E-03    7.3891476933E-03    7.3271269217E-03    7.2656278844E-03
    7.2046461894E-03    7.1441774817E-03    7.0842174426E-03    7.0247617898E-03
    6.9658062768E-03    6.9073466930E-03    6.8493788630E-03    6.7918986463E-03
    6.7349019375E-03    6.6783846653E-03    6.6223427930E-03    6.5667723175E-03
    6.5116692694E-03    6.4570297127E-03    6.4028497445E-03    6.3491254945E-03
    6.2958531251E-03    6.2430288310E-03    6.1906488386E-03    6.1387094063E-03
    6.0872068239E-03    6.0361374122E-03    5.9854975231E-03    5.9352835391E-03
    5.8854918733E-03    5.8361189686E-03    5.7871612981E-03    5.7386153646E-03
    5.6904777000E-03    5.6427448657E-03    5.5954134518E-03    5.5484800772E-03
    5.5019413892E-03    5.4557940634E-03    5.4100348031E-03    5.3646603397E-03
    5.3196674318E-03    5.2750528656E-03    5.2308134539E-03    5.1869460368E-03
    5.1434474806E-03    5.1003146783E-03    5.0575445488E-03    5.0151340370E-03
    4.9730801137E-03    4.9313797750E-03    4.8900300424E-03    4.8490279623E-03
    4.8083706062E-03    4.7680550701E-03    4.7280784746E-03    4.6884379644E-03
    4.6491307084E-03    4.6101538991E-03    4.5715047530E-03    4.5331805097E-03
    4.4951784322E-03    4.4574958067E-03    4.4201299420E-03    4.3830781697E-03
    4.3463378439E-03    4.3099063409E-03    4.2737810593E-03    4.2379594194E-03
    4.2024388634E-03    4.1672168549E-03    4.1322908790E-03    4.0976584419E-03
    4.0633170709E-03    4.0292643141E-03    3.9954977403E-03    3.9620149388E-03
    3.9288135190E-03    3.8958911109E-03    3.8632453639E-03    3.8308739478E-03
    3.7987745516E-03    3.7669448840E-03    3.7353826729E-03    3.7040856655E-03
    3.6730516279E-03    3.6422783451E-03    3.6117636205E-03    3.5815052765E-03
    3.5515011534E-03    3.5217491100E-03    3.4922470230E-03    3.4629927872E-03
    3.4339843150E-03    3.4052195362E-03    3.3766963986E-03    3.3484128667E-03
    3.3203669227E-03    3.2925565654E-03    3.2649798107E-03    3.2376346912E-03
    3.2105192560E-03    3.1836315708E-03    3.1569697175E-03    3.1305317942E-03
    3.1043159151E-03    3.0783202103E-03    3.0525428255E-03    3.0269819223E-03
    3.0016356776E-03    2.9765022839E-03    2.9515799486E-03    2.9268668945E-03
    2.9023613594E-03    2.8780615958E-03    2.8539658710E-03    2.8300724670E-03
    2.8063796803E-03    2.7828858215E-03    2.7595892158E-03    2.7364882023E-03
    2.7135811343E-03    2.6908663787E-03    2.6683423166E-03    2.6460073423E-03
    2.6238598640E-03    2.6018983030E-03    2.5801210944E-03    2.5585266860E-03
    2.5371135389E-03    2.5158801273E-03    2.4948249380E-03    2.4739464709E-03
    2.4532432383E-03    2.4327137651E-03    2.4123565887E-03    2.3921702588E-03
    2.3721533374E-03    2.3523043985E-03    2.3326220283E-03    2.3131048247E-03
    2.2937513977E-03    2.2745603689E-03    2.2555303714E-03    2.2366600500E-03
    2.2179480610E-03    2.1993930717E-03    2.1809937611E-03    2.1627488189E-03
    2.1446569462E-03    2.1267168549E-03    2.1089272677E-03    2.0912869182E-03
    2.0737945507E-03    2.0564489200E-03    2.0392487914E-03    2.0221929408E-03
    2.0052801541E-03    1.9885092277E-03    1.9718789681E-03    1.9553881918E-03
    1.9390357254E-03    1.9228204053E-03    1.9067410777E-03    1.8907965986E-03
    1.8749858337E-03    1.8593076580E-03    1.8437609564E-03    1.8283446229E-03
    1.8130575608E-03    1.7978986830E-03    1.7828669112E-03    1.7679611763E-03
    1.7531804183E-03    1.7385235862E-03    1.7239896375E-03    1.7095775390E-03
    1.6952862658E-03    1.6811148019E-03    1.6670621397E-03    1.6531272802E-03
    1.6393092328E-03    1.6256070153E-03    1.6120196536E-03    1.5985461821E-03
    1.5851856431E-03    1.5719370872E-03    1.5587995727E-03    1.5457721661E-03
    1.5328539416E-03    1.5200439815E-03    1.5073413754E-03    1.4947452210E-03
    1.4822546233E-03    1.4698686951E-03    1.4575865563E-03    1.4454073347E-03
    1.4333301651E-03    1.4213541898E-03    1.4094785582E-03    1.3977024269E-03
    1.3860249596E-03    1.3744453271E-03    1.3629627073E-03    1.3515762847E-03
    1.3402852510E-03    1.3290888046E-03    1.3179861506E-03    1.3069765008E-03
    1.2960590738E-03    1.2852330946E-03
   </PP_CHI.2>
 </PP_PSWFC>
 <PP_NLCC type="real"  size=" 910" columns="4">
    2.7012258190E+00    2.6994503251E+00    2.6941291037E+00    2.6852779220E+00
    2.6729230122E+00    2.6571010018E+00    2.6378588157E+00    2.6152535504E+00
    2.5893523212E+00    2.5602320798E+00    2.5279794056E+00    2.4926902684E+00
    2.4544697626E+00    2.4134318148E+00    2.3696988624E+00    2.3234015047E+00
    2.2746781260E+00    2.2236744909E+00    2.1705433117E+00    2.1154437875E+00
    2.0585411160E+00    2.0000059767E+00    1.9400139870E+00    1.8787451294E+00
    1.8163831518E+00    1.7531149391E+00    1.6891298572E+00    1.6246190692E+00
    1.5597748235E+00    1.4947897138E+00    1.4298559118E+00    1.3651643714E+00
    1.3009040052E+00    1.2372608329E+00    1.1744171024E+00    1.1125503820E+00
    1.0518326257E+00    9.9242920961E-01    9.3449794150E-01    8.7818804145E-01
    8.2363909515E-01    7.7097997917E-01    7.2032775822E-01    6.7178655464E-01
    6.2544638981E-01    5.8138199781E-01    5.3965161102E-01    5.0029571789E-01
    4.6333579279E-01    4.2877299791E-01    3.9658685726E-01    3.6673390273E-01
    3.3914629234E-01    3.1373040038E-01    2.9036537984E-01    2.6890169676E-01
    2.4916050853E-01    2.3095280766E-01    2.1411185094E-01    1.9849549947E-01
    1.8398249727E-01    1.7046915312E-01    1.5786647517E-01    1.4609773997E-01
    1.3509645030E-01    1.2480462909E-01    1.1517139782E-01    1.0615179402E-01
    9.7705788810E-02    8.9797472317E-02    8.2394380121E-02    7.5466938504E-02
    6.8988009844E-02    6.2932522259E-02    5.7277169782E-02    5.2000171161E-02
    4.7081076901E-02    4.2500615526E-02    3.8240571287E-02    3.4283686714E-02
    3.0613584436E-02    2.7214703708E-02    2.4072247882E-02    2.1172139877E-02
    1.8500983291E-02    1.6046027385E-02    1.3795134590E-02    1.1736749589E-02
    9.8598692879E-03    8.1540132682E-03    6.6091944721E-03    5.2158900466E-03
    3.9650123727E-03    2.8478804055E-03    1.8561915097E-03    9.8199402250E-04
    2.1766079803E-04   -4.4413600234E-04   -1.0104486144E-03   -1.4880756282E-03
   -1.8835819786E-03   -2.2033167814E-03   -2.4534288587E-03   -2.6398798281E-03
   -2.7684546660E-03   -2.8447696753E-03   -2.8742778168E-03   -2.8622713725E-03
   -2.8138819316E-03   -2.7340776930E-03   -2.6276580900E-03   -2.4992457475E-03
   -2.3532757844E-03   -2.1939824758E-03   -2.0253832898E-03   -1.8512603144E-03
   -1.6751390867E-03   -1.5002648359E-03   -1.3295761491E-03   -1.1656760667E-03
   -1.0108006109E-03   -8.6678474890E-04   -7.3502578913E-04   -6.1644420688E-04
   -5.1144189310E-04   -4.1985785523E-04   -3.4093672524E-04   -2.7355597524E-04
   -2.1658286200E-04   -1.6892858678E-04   -1.2955183448E-04   -9.7461788392E-05
   -7.1720625062E-05   -5.1445506891E-05   -3.5810090938E-05   -2.4045573911E-05
   -1.5441583392E-05   -9.3546182442E-06   -5.2219931571E-06   -2.5615613990E-06
   -9.6789195659E-07   -1.0816095183E-07    2.8219641138E-07    4.0403677340E-07
    3.9922604158E-07    3.5548930545E-07    3.1162338691E-07    2.7316751075E-07
    2.3947807928E-07    2.0996102750E-07    1.8409742393E-07    1.6143315303E-07
    1.4157078484E-07    1.2416246891E-07    1.0890372284E-07    9.5528002244E-08
    8.3801953756E-08    7.3521264270E-08    6.4507031709E-08    5.6602591176E-08
    4.9670739175E-08    4.3591305925E-08    3.8259031672E-08    3.3581708927E-08
    2.9478557226E-08    2.5878801007E-08    2.2720425329E-08    1.9949086879E-08
    1.7517161040E-08    1.5382907700E-08    1.3509741147E-08    1.1865590958E-08
    1.0422342321E-08    9.1553461953E-09    8.0429902716E-09    7.0663233213E-09
    6.2087261259E-09    5.4556234084E-09    4.7942313478E-09    4.2133365061E-09
    3.7031021622E-09    3.2548985128E-09    2.8611540371E-09    2.5152251674E-09
    2.2112820916E-09    1.9442086842E-09    1.7095147445E-09    1.5032591383E-09
    1.3219823748E-09    1.1626474940E-09    1.0225882574E-09    8.9946371466E-10
    7.9121834755E-10    6.9604712904E-10    6.1236487443E-10    5.3877935868E-10
    4.7406773216E-10    4.1715582970E-10    3.6710002318E-10    3.2307129149E-10
    2.8434124734E-10    2.5026987143E-10    2.2029474945E-10    1.9392162472E-10
    1.7071610573E-10    1.5029638629E-10    1.3232685495E-10    1.1651248388E-10
    1.0259390218E-10    9.0343069623E-11    7.9559477385E-11    7.0066811346E-11
    6.1710021381E-11    5.4352747051E-11    4.7875056188E-11    4.2171458180E-11
    3.7149158460E-11    3.2726524795E-11    2.8831739566E-11    2.5401615413E-11
    2.2380554341E-11    1.9719632855E-11    1.7375797804E-11    1.5311159473E-11
    1.3492370127E-11    1.1890077639E-11    1.0478445081E-11    9.2347282972E-12
    8.1389044271E-12    7.1733452108E-12    6.3225296586E-12    5.5727913216E-12
    4.9120959820E-12    4.3298460867E-12    3.8167086965E-12    3.3644641100E-12
    2.9658726718E-12    2.6145575693E-12    2.3049016946E-12    2.0319568747E-12
    1.7913639834E-12    1.5792826254E-12    1.3923292398E-12    1.2275226143E-12
    1.0822359168E-12    9.5415446391E-13    8.4123853744E-13    7.4169064305E-13
    6.5392667907E-13    5.7655054674E-13    5.0833178970E-13    4.4818590027E-13
    3.9515697342E-13    3.4840242760E-13    3.0717954547E-13    2.7083361712E-13
    2.3878749434E-13    2.1053238761E-13    1.8561975744E-13    1.6365416969E-13
    1.4428699982E-13    1.2721088506E-13    1.1215483527E-13    9.8879924268E-14
    8.7175492364E-14    7.6855799417E-14    6.7757074790E-14    5.9734917054E-14
    5.2662001870E-14    4.6426061472E-14    4.0928103475E-14    3.6080840631E-14
    3.1807306491E-14    2.8039634939E-14    2.4717984153E-14    2.1789587881E-14
    1.9207918957E-14    1.6931951748E-14    1.4925511820E-14    1.3156702505E-14
    1.1597399256E-14    1.0222803780E-14    9.0110508645E-15    7.9428616765E-15
    7.0012380342E-15    6.1711928043E-15    5.4395121585E-15    4.7945459224E-15
    4.2260226965E-15    3.7248868227E-15    3.2831546146E-15    2.8937875774E-15
    2.5505806087E-15    2.2480634116E-15    1.9814135590E-15    1.7463798344E-15
    1.5392146326E-15    1.3566143531E-15    1.1956668404E-15    1.0538050399E-15
    9.2876613351E-16    8.1855551006E-16    7.2141499693E-16    6.3579485092E-16
    5.6032906349E-16    4.9381358876E-16    4.3518714885E-16    3.8351431184E-16
    3.3797057354E-16    2.9782920623E-16    2.6244966524E-16    2.3126736916E-16
    2.0378469109E-16    1.7956301755E-16    1.5821574879E-16    1.3940212889E-16
    1.2282180768E-16    1.0821004685E-16    9.5333494370E-17    8.3986466015E-17
    7.3987652237E-17    6.5177201963E-17    5.7414170699E-17    5.0574288127E-17
    4.4547991780E-17    3.9238691485E-17    3.4561237860E-17    3.0440570994E-17
    2.6810528196E-17    2.3612792166E-17    2.0795963110E-17    1.8314740255E-17
    1.6129199917E-17    1.4204158767E-17    1.2508612276E-17    1.1015239507E-17
    9.6999664197E-18    8.5415808177E-18    7.5213928387E-18    6.6229356213E-18
    5.8317014088E-18    5.1349089064E-18    4.5212982013E-18    3.9809499893E-18
    3.5051262349E-18    3.0861297300E-18    2.7171803160E-18    2.3923057966E-18
    2.1062458019E-18    1.8543670706E-18    1.6325887963E-18    1.4373168448E-18
    1.2653857926E-18    1.1140078551E-18    9.8072789090E-19    8.6338375817E-19
    7.6007138871E-19    6.6911401929E-19    5.8903508616E-19    5.1853434733E-19
    4.5646684905E-19    4.0182439812E-19    3.5371924206E-19    3.1136969441E-19
    2.7408747368E-19    2.4126655190E-19    2.1237333309E-19    1.8693800329E-19
    1.6454691247E-19    1.4483586548E-19    1.2748421364E-19    1.1220965161E-19
    9.8763635346E-20    8.6927347182E-20    7.6508142708E-20    6.7336422035E-20
    5.9262874756E-20    5.2156054046E-20    4.5900240600E-20    4.0393561818E-20
    3.5546335773E-20    3.1321509342E-20    2.7112930858E-20    2.5922268400E-20
    1.6358456878E-20   -1.2904450609E-21    1.8351115882E-23    1.6782593274E-22
   -3.9652290468E-23    0.0000000000E+00    0.0000000000E+00    0.0000000000E+00
    0.0000000000E+00    0.0000000000E+00    0.0000000000E+00    0.0000000000E+00
    0.0000000000E+00    0.0000000000E+00    0.0000000000E+00    0.0000000000E+00
    0.0000000000E+00    0.0000000000E+00    0.0000000000E+00    0.0000000000E+00
    0.0000000000E+00    0.0000000000E+00    0.0000000000E+00    0.0000000000E+00
    0.0000000000E+00    0.0000000000E+00    0.0000000000E+00    0.0000000000E+00
    0.0000000000E+00    0.0000000000E+00    0.0000000000E+00    0.0000000000E+00
    0.0000000000E+00    0.0000000000E+00    0.0000000000E+00    0.0000000000E+00
    0.0000000000E+00    0.0000000000E+00    0.0000000000E+00    0.0000000000E+00
    0.0000000000E+00    0.0000000000E+00    0.0000000000E+00    0.0000000000E+00
    0.0000000000E+00    0.0000000000E+00    0.0000000000E+00    0.0000000000E+00
    0.0000000000E+00    0.0000000000E+00    0.0000000000E+00    0.0000000000E+00
    0.0000000000E+00    0.0000000000E+00    0.0000000000E+00    0.0000000000E+00
    0.0000000000E+00    0.0000000000E+00    0.0000000000E+00    0.0000000000E+00
    0.0000000000E+00    0.0000000000E+00    0.0000000000E+00    0.0000000000E+00
    0.0000000000E+00    0.0000000000E+00    0.0000000000E+00    0.0000000000E+00
    0.0000000000E+00    0.0000000000E+00    0.0000000000E+00    0.0000000000E+00
    0.0000000000E+00    0.0000000000E+00    0.0000000000E+00    0.0000000000E+00
    0.0000000000E+00    0.0000000000E+00    0.0000000000E+00    0.0000000000E+00
    0.0000000000E+00    0.0000000000E+00    0.0000000000E+00    0.0000000000E+00
    0.0000000000E+00    0.0000000000E+00    0.0000000000E+00    0.0000000000E+00
    0.0000000000E+00    0.0000000000E+00    0.0000000000E+00    0.0000000000E+00
    0.0000000000E+00    0.0000000000E+00    0.0000000000E+00    0.0000000000E+00
    0.0000000000E+00    0.0000000000E+00    0.0000000000E+00    0.0000000000E+00
    0.0000000000E+00    0.0000000000E+00    0.0000000000E+00    0.0000000000E+00
    0.0000000000E+00    0.0000000000E+00    0.0000000000E+00    0.0000000000E+00
    0.0000000000E+00    0.0000000000E+00    0.0000000000E+00    0.0000000000E+00
    0.0000000000E+00    0.0000000000E+00    0.0000000000E+00    0.0000000000E+00
    0.0000000000E+00    0.0000000000E+00    0.0000000000E+00    0.0000000000E+00
    0.0000000000E+00    0.0000000000E+00    0.0000000000E+00    0.0000000000E+00
    0.0000000000E+00    0.0000000000E+00    0.0000000000E+00    0.0000000000E+00
    0.0000000000E+00    0.0000000000E+00    0.0000000000E+00    0.0000000000E+00
    0.0000000000E+00    0.0000000000E+00    0.0000000000E+00    0.0000000000E+00
    0.0000000000E+00    0.0000000000E+00    0.0000000000E+00    0.0000000000E+00
    0.0000000000E+00    0.0000000000E+00    0.0000000000E+00    0.0000000000E+00
    0.0000000000E+00    0.0000000000E+00    0.0000000000E+00    0.0000000000E+00
    0.0000000000E+00    0.0000000000E+00    0.0000000000E+00    0.0000000000E+00
    0.0000000000E+00    0.0000000000E+00    0.0000000000E+00    0.0000000000E+00
    0.0000000000E+00    0.0000000000E+00    0.0000000000E+00    0.0000000000E+00
    0.0000000000E+00    0.0000000000E+00    0.0000000000E+00    0.0000000000E+00
    0.0000000000E+00    0.0000000000E+00    0.0000000000E+00    0.0000000000E+00
    0.0000000000E+00    0.0000000000E+00    0.0000000000E+00    0.0000000000E+00
    0.0000000000E+00    0.0000000000E+00    0.0000000000E+00    0.0000000000E+00
    0.0000000000E+00    0.0000000000E+00    0.0000000000E+00    0.0000000000E+00
    0.0000000000E+00    0.0000000000E+00    0.0000000000E+00    0.0000000000E+00
    0.0000000000E+00    0.0000000000E+00    0.0000000000E+00    0.0000000000E+00
    0.0000000000E+00    0.0000000000E+00    0.0000000000E+00    0.0000000000E+00
    0.0000000000E+00    0.0000000000E+00    0.0000000000E+00    0.0000000000E+00
    0.0000000000E+00    0.0000000000E+00    0.0000000000E+00    0.0000000000E+00
    0.0000000000E+00    0.0000000000E+00    0.0000000000E+00    0.0000000000E+00
    0.0000000000E+00    0.0000000000E+00    0.0000000000E+00    0.0000000000E+00
    0.0000000000E+00    0.0000000000E+00    0.0000000000E+00    0.0000000000E+00
    0.0000000000E+00    0.0000000000E+00    0.0000000000E+00    0.0000000000E+00
    0.0000000000E+00    0.0000000000E+00    0.0000000000E+00    0.0000000000E+00
    0.0000000000E+00    0.0000000000E+00    0.0000000000E+00    0.0000000000E+00
    0.0000000000E+00    0.0000000000E+00    0.0000000000E+00    0.0000000000E+00
    0.0000000000E+00    0.0000000000E+00    0.0000000000E+00    0.0000000000E+00
    0.0000000000E+00    0.0000000000E+00    0.0000000000E+00    0.0000000000E+00
    0.0000000000E+00    0.0000000000E+00    0.0000000000E+00    0.0000000000E+00
    0.0000000000E+00    0.0000000000E+00    0.0000000000E+00    0.0000000000E+00
    0.0000000000E+00    0.0000000000E+00    0.0000000000E+00    0.0000000000E+00
    0.0000000000E+00    0.0000000000E+00    0.0000000000E+00    0.0000000000E+00
    0.0000000000E+00    0.0000000000E+00    0.0000000000E+00    0.0000000000E+00
    0.0000000000E+00    0.0000000000E+00    0.0000000000E+00    0.0000000000E+00
    0.0000000000E+00    0.0000000000E+00    0.0000000000E+00    0.0000000000E+00
    0.0000000000E+00    0.0000000000E+00    0.0000000000E+00    0.0000000000E+00
    0.0000000000E+00    0.0000000000E+00    0.0000000000E+00    0.0000000000E+00
    0.0000000000E+00    0.0000000000E+00    0.0000000000E+00    0.0000000000E+00
    0.0000000000E+00    0.0000000000E+00    0.0000000000E+00    0.0000000000E+00
    0.0000000000E+00    0.0000000000E+00    0.0000000000E+00    0.0000000000E+00
    0.0000000000E+00    0.0000000000E+00    0.0000000000E+00    0.0000000000E+00
    0.0000000000E+00    0.0000000000E+00    0.0000000000E+00    0.0000000000E+00
    0.0000000000E+00    0.0000000000E+00    0.0000000000E+00    0.0000000000E+00
    0.0000000000E+00    0.0000000000E+00    0.0000000000E+00    0.0000000000E+00
    0.0000000000E+00    0.0000000000E+00    0.0000000000E+00    0.0000000000E+00
    0.0000000000E+00    0.0000000000E+00    0.0000000000E+00    0.0000000000E+00
    0.0000000000E+00    0.0000000000E+00    0.0000000000E+00    0.0000000000E+00
    0.0000000000E+00    0.0000000000E+00    0.0000000000E+00    0.0000000000E+00
    0.0000000000E+00    0.0000000000E+00    0.0000000000E+00    0.0000000000E+00
    0.0000000000E+00    0.0000000000E+00    0.0000000000E+00    0.0000000000E+00
    0.0000000000E+00    0.0000000000E+00    0.0000000000E+00    0.0000000000E+00
    0.0000000000E+00    0.0000000000E+00    0.0000000000E+00    0.0000000000E+00
    0.0000000000E+00    0.0000000000E+00    0.0000000000E+00    0.0000000000E+00
    0.0000000000E+00    0.0000000000E+00    0.0000000000E+00    0.0000000000E+00
    0.0000000000E+00    0.0000000000E+00    0.0000000000E+00    0.0000000000E+00
    0.0000000000E+00    0.0000000000E+00    0.0000000000E+00    0.0000000000E+00
    0.0000000000E+00    0.0000000000E+00    0.0000000000E+00    0.0000000000E+00
    0.0000000000E+00    0.0000000000E+00    0.0000000000E+00    0.0000000000E+00
    0.0000000000E+00    0.0000000000E+00    0.0000000000E+00    0.0000000000E+00
    0.0000000000E+00    0.0000000000E+00    0.0000000000E+00    0.0000000000E+00
    0.0000000000E+00    0.0000000000E+00    0.0000000000E+00    0.0000000000E+00
    0.0000000000E+00    0.0000000000E+00    0.0000000000E+00    0.0000000000E+00
    0.0000000000E+00    0.0000000000E+00    0.0000000000E+00    0.0000000000E+00
    0.0000000000E+00    0.0000000000E+00    0.0000000000E+00    0.0000000000E+00
    0.0000000000E+00    0.0000000000E+00    0.0000000000E+00    0.0000000000E+00
    0.0000000000E+00    0.0000000000E+00    0.0000000000E+00    0.0000000000E+00
    0.0000000000E+00    0.0000000000E+00    0.0000000000E+00    0.0000000000E+00
    0.0000000000E+00    0.0000000000E+00    0.0000000000E+00    0.0000000000E+00
    0.0000000000E+00    0.0000000000E+00    0.0000000000E+00    0.0000000000E+00
    0.0000000000E+00    0.0000000000E+00    0.0000000000E+00    0.0000000000E+00
    0.0000000000E+00    0.0000000000E+00    0.0000000000E+00    0.0000000000E+00
    0.0000000000E+00    0.0000000000E+00    0.0000000000E+00    0.0000000000E+00
    0.0000000000E+00    0.0000000000E+00    0.0000000000E+00    0.0000000000E+00
    0.0000000000E+00    0.0000000000E+00    0.0000000000E+00    0.0000000000E+00
    0.0000000000E+00    0.0000000000E+00    0.0000000000E+00    0.0000000000E+00
    0.0000000000E+00    0.0000000000E+00    0.0000000000E+00    0.0000000000E+00
    0.0000000000E+00    0.0000000000E+00    0.0000000000E+00    0.0000000000E+00
    0.0000000000E+00    0.0000000000E+00    0.0000000000E+00    0.0000000000E+00
    0.0000000000E+00    0.0000000000E+00    0.0000000000E+00    0.0000000000E+00
    0.0000000000E+00    0.0000000000E+00    0.0000000000E+00    0.0000000000E+00
    0.0000000000E+00    0.0000000000E+00    0.0000000000E+00    0.0000000000E+00
    0.0000000000E+00    0.0000000000E+00    0.0000000000E+00    0.0000000000E+00
    0.0000000000E+00    0.0000000000E+00    0.0000000000E+00    0.0000000000E+00
    0.0000000000E+00    0.0000000000E+00    0.0000000000E+00    0.0000000000E+00
    0.0000000000E+00    0.0000000000E+00    0.0000000000E+00    0.0000000000E+00
    0.0000000000E+00    0.0000000000E+00    0.0000000000E+00    0.0000000000E+00
    0.0000000000E+00    0.0000000000E+00    0.0000000000E+00    0.0000000000E+00
    0.0000000000E+00    0.0000000000E+00    0.0000000000E+00    0.0000000000E+00
    0.0000000000E+00    0.0000000000E+00    0.0000000000E+00    0.0000000000E+00
    0.0000000000E+00    0.0000000000E+00    0.0000000000E+00    0.0000000000E+00
    0.0000000000E+00    0.0000000000E+00    0.0000000000E+00    0.0000000000E+00
    0.0000000000E+00    0.0000000000E+00    0.0000000000E+00    0.0000000000E+00
    0.0000000000E+00    0.0000000000E+00    0.0000000000E+00    0.0000000000E+00
    0.0000000000E+00    0.0000000000E+00    0.0000000000E+00    0.0000000000E+00
    0.0000000000E+00    0.0000000000E+00    0.0000000000E+00    0.0000000000E+00
    0.0000000000E+00    0.0000000000E+00    0.0000000000E+00    0.0000000000E+00
    0.0000000000E+00    0.0000000000E+00    0.0000000000E+00    0.0000000000E+00
    0.0000000000E+00    0.0000000000E+00    0.0000000000E+00    0.0000000000E+00
    0.0000000000E+00    0.0000000000E+00    0.0000000000E+00    0.0000000000E+00
    0.0000000000E+00    0.0000000000E+00    0.0000000000E+00    0.0000000000E+00
    0.0000000000E+00    0.0000000000E+00
 </PP_NLCC>
 <PP_RHOATOM type="real"  size=" 910" columns="4">
    0.0000000000E+00    3.7147995033E-04    1.4960302798E-03    3.4038565678E-03
    6.1448834241E-03    9.7881326705E-03    1.4420863160E-02    2.0147482440E-02
    2.7088243145E-02    3.5377739549E-02    4.5163222020E-02    5.6602749214E-02
    6.9863199717E-02    8.5118166399E-02    1.0254575801E-01    1.2232633357E-01
    1.4464019563E-01    1.6966526905E-01    1.9757479153E-01    2.2853504225E-01
    2.6270313400E-01    3.0022489332E-01    3.4123285198E-01    3.8584437142E-01
    4.3415992028E-01    4.8626152279E-01    5.4221139395E-01    6.0205077469E-01
    6.6579897817E-01    7.3345265520E-01    8.0498528471E-01    8.8034689206E-01
    9.5946399560E-01    1.0422397790E+00    1.1285544848E+00    1.2182660214E+00
    1.3112107743E+00    1.4072046099E+00    1.5060440580E+00    1.6075076573E+00
    1.7113574486E+00    1.8173405955E+00    1.9251911150E+00    2.0346316983E+00
    2.1453756006E+00    2.2571285803E+00    2.3695908676E+00    2.4824591411E+00
    2.5954284944E+00    2.7081943733E+00    2.8204544659E+00    2.9319105292E+00
    3.0422701368E+00    3.1512483340E+00    3.2585691872E+00    3.3639672190E+00
    3.4671887177E+00    3.5679929147E+00    3.6661530256E+00    3.7614571490E+00
    3.8537090232E+00    3.9427286388E+00    4.0283527088E+00    4.1104349985E+00
    4.1888465190E+00    4.2634755894E+00    4.3342277738E+00    4.4010257003E+00
    4.4638087689E+00    4.5225327585E+00    4.5771693410E+00    4.6277055123E+00
    4.6741429499E+00    4.7164973066E+00    4.7547974511E+00    4.7890846638E+00
    4.8194117986E+00    4.8458424186E+00    4.8684499156E+00    4.8873166211E+00
    4.9025329162E+00    4.9141963484E+00    4.9224107606E+00    4.9272854398E+00
    4.9289342895E+00    4.9274750299E+00    4.9230284320E+00    4.9157175863E+00
    4.9056672103E+00    4.8930029965E+00    4.8778510020E+00    4.8603370810E+00
    4.8405863610E+00    4.8187227616E+00    4.7948685568E+00    4.7691439793E+00
    4.7416668662E+00    4.7125523445E+00    4.6819125547E+00    4.6498564121E+00
    4.6164894024E+00    4.5819134101E+00    4.5462265795E+00    4.5095232030E+00
    4.4718936384E+00    4.4334242504E+00    4.3941973761E+00    4.3542913119E+00
    4.3137803200E+00    4.2727346534E+00    4.2312205976E+00    4.1893005266E+00
    4.1470329737E+00    4.1044727133E+00    4.0616708554E+00    4.0186749485E+00
    3.9755290926E+00    3.9322740599E+00    3.8889474218E+00    3.8455836833E+00
    3.8022144216E+00    3.7588684295E+00    3.7155718631E+00    3.6723483915E+00
    3.6292193497E+00    3.5862038922E+00    3.5433191481E+00    3.5005803756E+00
    3.4580011151E+00    3.4155933424E+00    3.3733676182E+00    3.3313332359E+00
    3.2894983652E+00    3.2478701917E+00    3.2064550509E+00    3.1652585575E+00
    3.1242857348E+00    3.0835413237E+00    3.0430302507E+00    3.0027577737E+00
    2.9627295442E+00    2.9229516579E+00    2.8834306917E+00    2.8441737287E+00
    2.8051883710E+00    2.7664827412E+00    2.7280654620E+00    2.6899453526E+00
    2.6521307611E+00    2.6146294324E+00    2.5774485308E+00    2.5405946629E+00
    2.5040739004E+00    2.4678918025E+00    2.4320534370E+00    2.3965634012E+00
    2.3614258419E+00    2.3266444754E+00    2.2922226058E+00    2.2581631437E+00
    2.2244686238E+00    2.1911412218E+00    2.1581827714E+00    2.1255947799E+00
    2.0933784437E+00    2.0615346634E+00    2.0300640579E+00    1.9989669785E+00
    1.9682435220E+00    1.9378935440E+00    1.9079166706E+00    1.8783123112E+00
    1.8490796693E+00    1.8202177539E+00    1.7917253900E+00    1.7636012290E+00
    1.7358437582E+00    1.7084513107E+00    1.6814220740E+00    1.6547540991E+00
    1.6284453085E+00    1.6024935046E+00    1.5768963770E+00    1.5516515101E+00
    1.5267563901E+00    1.5022084117E+00    1.4780048847E+00    1.4541430402E+00
    1.4306200362E+00    1.4074329639E+00    1.3845788525E+00    1.3620546746E+00
    1.3398573512E+00    1.3179837566E+00    1.2964307225E+00    1.2751950424E+00
    1.2542734762E+00    1.2336627533E+00    1.2133595769E+00    1.1933606275E+00
    1.1736625658E+00    1.1542620367E+00    1.1351556715E+00    1.1163400914E+00
    1.0978119101E+00    1.0795677361E+00    1.0616041756E+00    1.0439178347E+00
    1.0265053214E+00    1.0093632480E+00    9.9248823304E-01    9.7587690285E-01
    9.5952589373E-01    9.4343185338E-01    9.2759144253E-01    9.1200133642E-01
    8.9665822616E-01    8.8155882008E-01    8.6669984487E-01    8.5207804680E-01
    8.3769019273E-01    8.2353307114E-01    8.0960349303E-01    7.9589829281E-01
    7.8241432906E-01    7.6914848532E-01    7.5609767070E-01    7.4325882060E-01
    7.3062889719E-01    7.1820489003E-01    7.0598381647E-01    6.9396272213E-01
    6.8213868128E-01    6.7050879722E-01    6.5907020253E-01    6.4782005940E-01
    6.3675555988E-01    6.2587392603E-01    6.1517241017E-01    6.0464829497E-01
    5.9429889361E-01    5.8412154984E-01    5.7411363809E-01    5.6427256346E-01
    5.5459576180E-01    5.4508069967E-01    5.3572487434E-01    5.2652581372E-01
    5.1748107638E-01    5.0858825137E-01    4.9984495823E-01    4.9124884684E-01
    4.8279759728E-01    4.7448891976E-01    4.6632055445E-01    4.5829027130E-01
    4.5039586992E-01    4.4263517938E-01    4.3500605806E-01    4.2750639341E-01
    4.2013410181E-01    4.1288712829E-01    4.0576344642E-01    3.9876105800E-01
    3.9187799289E-01    3.8511230875E-01    3.7846209086E-01    3.7192545182E-01
    3.6550053135E-01    3.5918549603E-01    3.5297853908E-01    3.4687788007E-01
    3.4088176471E-01    3.3498846456E-01    3.2919627680E-01    3.2350352399E-01
    3.1790855375E-01    3.1240973858E-01    3.0700547552E-01    3.0169418597E-01
    2.9647431536E-01    2.9134433293E-01    2.8630273145E-01    2.8134802695E-01
    2.7647875849E-01    2.7169348785E-01    2.6699079930E-01    2.6236929933E-01
    2.5782761637E-01    2.5336440054E-01    2.4897832338E-01    2.4466807759E-01
    2.4043237677E-01    2.3626995513E-01    2.3217956725E-01    2.2815998781E-01
    2.2421001133E-01    2.2032845187E-01    2.1651414280E-01    2.1276593653E-01
    2.0908270423E-01    2.0546333557E-01    2.0190673845E-01    1.9841183871E-01
    1.9497757992E-01    1.9160292304E-01    1.8828684619E-01    1.8502834438E-01
    1.8182642922E-01    1.7868012863E-01    1.7558848663E-01    1.7255056300E-01
    1.6956543301E-01    1.6663218718E-01    1.6374993097E-01    1.6091778451E-01
    1.5813488232E-01    1.5540037302E-01    1.5271341908E-01    1.5007319646E-01
    1.4747889447E-01    1.4492971583E-01    1.4242487668E-01    1.3996360645E-01
    1.3754514763E-01    1.3516875554E-01    1.3283369820E-01    1.3053925610E-01
    1.2828472198E-01    1.2606940067E-01    1.2389260892E-01    1.2175367515E-01
    1.1965193931E-01    1.1758675271E-01    1.1555747778E-01    1.1356348794E-01
    1.1160416742E-01    1.0967891107E-01    1.0778712417E-01    1.0592822230E-01
    1.0410163115E-01    1.0230678636E-01    1.0054313333E-01    9.8810127112E-02
    9.7107232198E-02    9.5433922391E-02    9.3789680641E-02    9.2173998895E-02
    9.0586377947E-02    8.9026327284E-02    8.7493364948E-02    8.5987017383E-02
    8.4506819301E-02    8.3052313534E-02    8.1623050906E-02    8.0218590085E-02
    7.8838497462E-02    7.7482347008E-02    7.6149720154E-02    7.4840205655E-02
    7.3553399471E-02    7.2288904638E-02    7.1046331151E-02    6.9825295841E-02
    6.8625422257E-02    6.7446340553E-02    6.6287687370E-02    6.5149105727E-02
    6.4030244907E-02    6.2930760353E-02    6.1850313555E-02    6.0788571950E-02
    5.9745208818E-02    5.8719903175E-02    5.7712339681E-02    5.6722208534E-02
    5.5749205380E-02    5.4793031211E-02    5.3853392277E-02    5.2929999991E-02
    5.2022570840E-02    5.1130826296E-02    5.0254492726E-02    4.9393301310E-02
    4.8546987954E-02    4.7715293208E-02    4.6897962184E-02    4.6094744474E-02
    4.5305394077E-02    4.4529669312E-02    4.3767332752E-02    4.3018151141E-02
    4.2281895326E-02    4.1558340181E-02    4.0847264538E-02    4.0148451118E-02
    3.9461686458E-02    3.8786760849E-02    3.8123468267E-02    3.7471606307E-02
    3.6830976122E-02    3.6201382357E-02    3.5582633090E-02    3.4974539769E-02
    3.4376917155E-02    3.3789583259E-02    3.3212359291E-02    3.2645069598E-02
    3.2087541609E-02    3.1539605785E-02    3.1001095561E-02    3.0471847292E-02
    2.9951700208E-02    2.9440496356E-02    2.8938080556E-02    2.8444300346E-02
    2.7959005939E-02    2.7482050173E-02    2.7013288466E-02    2.6552578770E-02
    2.6099781523E-02    2.5654759610E-02    2.5217378318E-02    2.4787505292E-02
    2.4365010494E-02    2.3949766163E-02    2.3541646773E-02    2.3140528995E-02
    2.2746291659E-02    2.2358815711E-02    2.1977984183E-02    2.1603682149E-02
    2.1235796693E-02    2.0874216874E-02    2.0518833687E-02    2.0169540034E-02
    1.9826230684E-02    1.9488802248E-02    1.9157153138E-02    1.8831183544E-02
    1.8510795393E-02    1.8195892327E-02    1.7886379667E-02    1.7582164385E-02
    1.7283155077E-02    1.6989261932E-02    1.6700396703E-02    1.6416472682E-02
    1.6137404672E-02    1.5863108960E-02    1.5593503289E-02    1.5328506838E-02
    1.5068040189E-02    1.4812025309E-02    1.4560385521E-02    1.4313045483E-02
    1.4069931163E-02    1.3830969818E-02    1.3596089966E-02    1.3365221371E-02
    1.3138295016E-02    1.2915243084E-02    1.2695998935E-02    1.2480497087E-02
    1.2268673194E-02    1.2060464030E-02    1.1855807462E-02    1.1654642439E-02
    1.1456908967E-02    1.1262548092E-02    1.1071501886E-02    1.0883713421E-02
    1.0699126758E-02    1.0517686928E-02    1.0339339913E-02    1.0164032631E-02
    9.9917129194E-03    9.8223295203E-03    9.6558320615E-03    9.4921710434E-03
    9.3312978229E-03    9.1731645984E-03    9.0177243954E-03    8.8649310518E-03
    8.7147392036E-03    8.5671042710E-03    8.4219824450E-03    8.2793306735E-03
    8.1391066482E-03    8.0012687917E-03    7.8657762447E-03    7.7325888535E-03
    7.6016671574E-03    7.4729723771E-03    7.3464664023E-03    7.2221117803E-03
    7.0998717047E-03    6.9797100037E-03    6.8615911292E-03    6.7454801462E-03
    6.6313427218E-03    6.5191451149E-03    6.4088541655E-03    6.3004372852E-03
    6.1938624469E-03    6.0890981750E-03    5.9861135357E-03    5.8848781281E-03
    5.7853620743E-03    5.6875360107E-03    5.5913710788E-03    5.4968389168E-03
    5.4039116506E-03    5.3125618853E-03    5.2227626974E-03    5.1344876258E-03
    5.0477106647E-03    4.9624062548E-03    4.8785492762E-03    4.7961150406E-03
    4.7150792835E-03    4.6354181574E-03    4.5571082240E-03    4.4801264478E-03
    4.4044501883E-03    4.3300571937E-03    4.2569255941E-03    4.1850338949E-03
    4.1143609700E-03    4.0448860557E-03    3.9765887445E-03    3.9094489788E-03
    3.8434470447E-03    3.7785635664E-03    3.7147794999E-03    3.6520761279E-03
    3.5904350535E-03    3.5298381949E-03    3.4702677803E-03    3.4117063421E-03
    3.3541367116E-03    3.2975420143E-03    3.2419056644E-03    3.1872113602E-03
    3.1334430785E-03    3.0805850708E-03    3.0286218576E-03    2.9775382245E-03
    2.9273192171E-03    2.8779501368E-03    2.8294165364E-03    2.7817042155E-03
    2.7347992166E-03    2.6886878207E-03    2.6433565432E-03    2.5987921301E-03
    2.5549815536E-03    2.5119120085E-03    2.4695709084E-03    2.4279458818E-03
    2.3870247685E-03    2.3467956158E-03    2.3072466751E-03    2.2683663983E-03
    2.2301434346E-03    2.1925666267E-03    2.1556250077E-03    2.1193077977E-03
    2.0836044010E-03    2.0485044023E-03    2.0139975642E-03    1.9800738235E-03
    1.9467232891E-03    1.9139362380E-03    1.8817031133E-03    1.8500145209E-03
    1.8188612267E-03    1.7882341540E-03    1.7581243809E-03    1.7285231373E-03
    1.6994218026E-03    1.6708119030E-03    1.6426851090E-03    1.6150332330E-03
    1.5878482267E-03    1.5611221791E-03    1.5348473135E-03    1.5090159858E-03
    1.4836206819E-03    1.4586540157E-03    1.4341087268E-03    1.4099776780E-03
    1.3862538540E-03    1.3629303585E-03    1.3400004126E-03    1.3174573527E-03
    1.2952946285E-03    1.2735058012E-03    1.2520845413E-03    1.2310246271E-03
    1.2103199423E-03    1.1899644751E-03    1.1699523153E-03    1.1502776537E-03
    1.1309347793E-03    1.1119180786E-03    1.0932220331E-03    1.0748412182E-03
    1.0567703015E-03    1.0390040410E-03    1.0215372839E-03    1.0043649649E-03
    9.8748210457E-04    9.7088380808E-04    9.5456526374E-04    9.3852174152E-04
    9.2274859167E-04    9.0724124336E-04    8.9199520335E-04    8.7700605462E-04
    8.6226945512E-04    8.4778113645E-04    8.3353690266E-04    8.1953262894E-04
    8.0576426047E-04    7.9222781121E-04    7.7891936268E-04    7.6583506291E-04
    7.5297112521E-04    7.4032382709E-04    7.2788950920E-04    7.1566457421E-04
    7.0364548576E-04    6.9182876745E-04    6.8021100179E-04    6.6878882922E-04
    6.5755894709E-04    6.4651810873E-04    6.3566312248E-04    6.2499085074E-04
    6.1449820908E-04    6.0418216530E-04    5.9403973859E-04    5.8406799860E-04
    5.7426406462E-04    5.6462510472E-04    5.5514833492E-04    5.4583101838E-04
    5.3667046462E-04    5.2766402867E-04    5.1880911037E-04    5.1010315355E-04
    5.0154364532E-04    4.9312811531E-04    4.8485413498E-04    4.7671931685E-04
    4.6872131386E-04    4.6085781868E-04    4.5312656300E-04    4.4552531687E-04
    4.3805188809E-04    4.3070412152E-04    4.2347989850E-04    4.1637713619E-04
    4.0939378696E-04    4.0252783782E-04    3.9577730984E-04    3.8914025752E-04
    3.8261476827E-04    3.7619896183E-04    3.6989098974E-04    3.6368903476E-04
    3.5759131040E-04    3.5159606034E-04    3.4570155796E-04    3.3990610582E-04
    3.3420803515E-04    3.2860570539E-04    3.2309750371E-04    3.1768184452E-04
    3.1235716901E-04    3.0712194473E-04    3.0197466508E-04    2.9691384895E-04
    2.9193804022E-04    2.8704580737E-04    2.8223574307E-04    2.7750646374E-04
    2.7285660916E-04    2.6828484211E-04    2.6378984791E-04    2.5937033411E-04
    2.5502503005E-04    2.5075268655E-04    2.4655207549E-04    2.4242198951E-04
    2.3836124161E-04    2.3436866482E-04    2.3044311188E-04    2.2658345489E-04
    2.2278858497E-04    2.1905741196E-04    2.1538886410E-04    2.1178188771E-04
    2.0823544689E-04    2.0474852319E-04    2.0132011539E-04    1.9794923911E-04
    1.9463492661E-04    1.9137622645E-04    1.8817220326E-04    1.8502193742E-04
    1.8192452483E-04    1.7887907664E-04    1.7588471898E-04    1.7294059272E-04
    1.7004585322E-04    1.6719967008E-04    1.6440122688E-04    1.6164972098E-04
    1.5894436328E-04    1.5628437795E-04    1.5366900228E-04    1.5109748637E-04
    1.4856909300E-04    1.4608309733E-04    1.4363878678E-04    1.4123546075E-04
    1.3887243045E-04    1.3654901869E-04    1.3426455971E-04    1.3201839895E-04
    1.2980989289E-04    1.2763840882E-04    1.2550332472E-04    1.2340402904E-04
    1.2133992053E-04    1.1931040806E-04    1.1731491047E-04    1.1535285636E-04
    1.1342368398E-04    1.1152684103E-04    1.0966178451E-04    1.0782798056E-04
    1.0602490431E-04    1.0425203973E-04    1.0250887948E-04    1.0079492475E-04
    9.9109685128E-05    9.7452678472E-05    9.5823430741E-05    9.4221475878E-05
    9.2646355669E-05    9.1097619611E-05    8.9574824785E-05    8.8077535721E-05
    8.6605324283E-05    8.5157769533E-05    8.3734457619E-05    8.2334981652E-05
    8.0958941588E-05    7.9605944112E-05    7.8275602528E-05    7.6967536643E-05
    7.5681372661E-05    7.4416743071E-05    7.3173286546E-05    7.1950647834E-05
    7.0748477660E-05    6.9566432620E-05    6.8404175087E-05    6.7261373112E-05
    6.6137700325E-05    6.5032835847E-05    6.3946464191E-05    6.2878275177E-05
    6.1827963838E-05    6.0795230334E-05    5.9779779867E-05    5.8781322593E-05
    5.7799573541E-05    5.6834252529E-05    5.5885084084E-05    5.4951797365E-05
    5.4034126081E-05    5.3131808416E-05    5.2244586955E-05    5.1372208607E-05
    5.0514424536E-05    4.9670990084E-05    4.8841664707E-05    4.8026211900E-05
    4.7224399133E-05    4.6435997782E-05    4.5660783063E-05    4.4898533967E-05
    4.4149033201E-05    4.3412067119E-05    4.2687425664E-05    4.1974902307E-05
    4.1274293988E-05    4.0585401057E-05    3.9908027216E-05    3.9241979465E-05
    3.8587068043E-05    3.7943106378E-05    3.7309911027E-05    3.6687301630E-05
    3.6075100853E-05    3.5473134342E-05    3.4881230666E-05    3.4299221276E-05
    3.3726940449E-05    3.3164225246E-05    3.2610915462E-05    3.2066853580E-05
    3.1531884729E-05    3.1005856635E-05    3.0488619582E-05    2.9980026363E-05
    2.9479932244E-05    2.8988194919E-05    2.8504674469E-05    2.8029233325E-05
    2.7561736224E-05    2.7102050172E-05    2.6650044407E-05    2.6205590363E-05
    2.5768561627E-05    2.5338833908E-05    2.4916285001E-05    2.4500794750E-05
    2.4092245013E-05    2.3690519633E-05    2.3295504397E-05    2.2907087010E-05
    2.2525157060E-05    2.2149605986E-05    2.1780327048E-05    2.1417215295E-05
    2.1060167536E-05    2.0709082311E-05    2.0363859860E-05    2.0024402097E-05
    1.9690612579E-05    1.9362396481E-05    1.9039660567E-05    1.8722313163E-05
    1.8410264133E-05    1.8103424852E-05    1.7801708179E-05    1.7505028435E-05
    1.7213301377E-05    1.6926444172E-05    1.6644375378E-05    1.6367014915E-05
    1.6094284046E-05    1.5826105355E-05    1.5562402720E-05    1.5303101298E-05
    1.5048127497E-05    1.4797408959E-05    1.4550874539E-05    1.4308454284E-05
    1.4070079410E-05    1.3835682290E-05    1.3605196425E-05    1.3378556434E-05
    1.3155698028E-05    1.2936557996E-05    1.2721074187E-05    1.2509185489E-05
    1.2300831813E-05    1.2095954080E-05    1.1894494195E-05    1.1696395040E-05
    1.1501600452E-05    1.1310055208E-05    1.1121705010E-05    1.0936496470E-05
    1.0754377092E-05    1.0575295261E-05    1.0399200224E-05    1.0226042079E-05
    1.0055771759E-05    9.8883410181E-06    9.7237024188E-06    9.5618093166E-06
    9.4026158484E-06    9.2460769183E-06    9.0921481854E-06    8.9407860508E-06
    8.7919476452E-06    8.6455908168E-06    8.5016741190E-06    8.3601567988E-06
    8.2209987854E-06    8.0841606780E-06    7.9496037354E-06    7.8172898644E-06
    7.6871816092E-06    7.5592421406E-06    7.4334352455E-06    7.3097253166E-06
    7.1880773424E-06    7.0684568967E-06    6.9508301296E-06    6.8351637570E-06
    6.7214250517E-06    6.6095818338E-06
 </PP_RHOATOM>
 <PP_TAUMOD type="real"  size=" 910" columns="4">
    2.9523840549E+01    2.9508049288E+01    2.9460712458E+01    2.9381940848E+01
    2.9271918851E+01    2.9130904082E+01    2.8959226853E+01    2.8757289478E+01
    2.8525565448E+01    2.8264598430E+01    2.7975001136E+01    2.7657454025E+01
    2.7312703858E+01    2.6941562102E+01    2.6544903180E+01    2.6123662569E+01
    2.5678834748E+01    2.5211470988E+01    2.4722676999E+01    2.4213610418E+01
    2.3685478143E+01    2.3139533526E+01    2.2577073400E+01    2.1999434965E+01
    2.1407992513E+01    2.0804154008E+01    2.0189357511E+01    1.9565067452E+01
    1.8932770748E+01    1.8293972780E+01    1.7650193198E+01    1.7002961594E+01
    1.6353813013E+01    1.5704283309E+01    1.5055904357E+01    1.4410199106E+01
    1.3768676485E+01    1.3132826153E+01    1.2504113101E+01    1.1883972095E+01
    1.1273801974E+01    1.0674959793E+01    1.0088754816E+01    9.5164423476E+00
    8.9592174282E+00    8.4182083635E+00    7.8944701083E+00    7.3889774968E+00
    6.9026183208E+00    6.4361862556E+00    5.9903736338E+00    5.5657640675E+00
    5.1628249174E+00    4.7818996108E+00    4.4231998068E+00    4.0867974095E+00
    3.7726164293E+00    3.4804246917E+00    3.2098253944E+00    2.9602485121E+00
    2.7309420486E+00    2.5209631382E+00    2.3291689931E+00    2.1542077004E+00
    1.9945089149E+00    1.8483228548E+00    1.7139976920E+00    1.5901263657E+00
    1.4755156255E+00    1.3691526427E+00    1.2701768661E+00    1.1778562384E+00
    1.0915670483E+00    1.0107768299E+00    9.3502983433E-01    8.6393468688E-01
    7.9715390986E-01    7.3439504362E-01    6.7540313896E-01    6.1995442540E-01
    5.6785098666E-01    5.1891629672E-01    4.7299148932E-01    4.2993225042E-01
    3.8960623869E-01    3.5189095177E-01    3.1667196804E-01    2.8384150369E-01
    2.5329723347E-01    2.2494133132E-01    1.9867969339E-01    1.7442131157E-01
    1.5207777067E-01    1.3156284639E-01    1.1279218526E-01    9.5683050889E-02
    8.0154123960E-02    6.6125345962E-02    5.3517799057E-02    4.2253616399E-02
    3.2255918845E-02    2.3448775355E-02    1.5757185352E-02    9.1070821081E-03
    3.4253567447E-03   -1.3600973062E-03   -5.3203193670E-03   -8.5251959713E-03
   -1.1043354458E-02   -1.2942035370E-02   -1.4286943272E-02   -1.5142075567E-02
   -1.5569528871E-02   -1.5629282525E-02   -1.5378958802E-02   -1.4873559405E-02
   -1.4165177882E-02   -1.3302687603E-02   -1.2331404987E-02   -1.1292727708E-02
   -1.0223747653E-02   -9.1568384293E-03   -8.1192172735E-03   -7.1324812227E-03
   -6.2121174553E-03   -5.3669881094E-03   -4.5989577145E-03   -3.9053553090E-03
   -3.2828593936E-03   -2.7280709914E-03   -2.2375356412E-03   -1.8077629811E-03
   -1.4352441926E-03   -1.1164676978E-03   -8.4793348533E-04   -6.2616623828E-04
   -4.4759753457E-04   -3.0746181845E-04   -2.0047894125E-04   -1.2161715967E-04
   -6.6113686955E-05   -2.9485242934E-05   -7.5369838255E-06    3.6300051163E-06
    7.6125625460E-06    7.7004178544E-06    6.7611572863E-06    5.9194280313E-06
    5.1828129879E-06    4.5382535405E-06    3.9741960649E-06    3.4805432620E-06
    3.0484697887E-06    2.6702613171E-06    2.3391741049E-06    2.0493123016E-06
    1.7955209203E-06    1.5732923249E-06    1.3786845747E-06    1.2082501561E-06
    1.0589736817E-06    9.2821749318E-07    8.1367415937E-07    7.1332493224E-07
    6.2540349906E-07    5.4836427214E-07    4.8085469227E-07    4.2169100787E-07
    3.6983713981E-07    3.2438616598E-07    2.8454415035E-07    2.4961602175E-07
    2.1899320180E-07    1.9214279821E-07    1.6859815312E-07    1.4795057422E-07
    1.2984211219E-07    1.1395922809E-07    1.0002725504E-07    8.7805568555E-08
    7.7083347427E-08    6.7675860097E-08    5.9421233798E-08    5.2177601977E-08
    4.5820633699E-08    4.0241346138E-08    3.5344208430E-08    3.1045474007E-08
    2.7271717645E-08    2.3958563269E-08    2.1049559084E-08    1.8495202737E-08
    1.6252077289E-08    1.4282105305E-08    1.2551886102E-08    1.1032120698E-08
    9.6971046579E-09    8.5242868370E-09    7.4938797965E-09    6.5885207209E-09
    5.7929718981E-09    5.0938606920E-09    4.4794494596E-09    3.9394353304E-09
    3.4647737358E-09    3.0475242347E-09    2.6807150787E-09    2.3582245298E-09
    2.0746767876E-09    1.8253507136E-09    1.6060997909E-09    1.4132819268E-09
    1.2436978611E-09    1.0945371079E-09    9.6333051883E-10    8.4790865802E-10
    7.4636527412E-10    6.5702524226E-10    5.7841642701E-10    5.0924498466E-10
    4.4837368270E-10    3.9480286656E-10    3.4765374879E-10    3.0615373642E-10
    2.6962354669E-10    2.3746589231E-10    2.0915554443E-10    1.8423060468E-10
    1.6228483867E-10    1.4296094135E-10    1.2594462043E-10    1.1095939820E-10
    9.7762043972E-11    8.6138560574E-11    7.5900657204E-11    6.6882649582E-11
    5.8938735395E-11    5.1940599409E-11    4.5775308201E-11    4.0343459351E-11
    3.5557554203E-11    3.1340567090E-11    2.7624687196E-11    2.4350212155E-11
    2.1464575005E-11    1.8921488354E-11    1.6680191597E-11    1.4704788713E-11
    1.2963665711E-11    1.1428978088E-11    1.0076199883E-11    8.8837268583E-12
    7.8325273205E-12    6.9058348115E-12    6.0888776490E-12    5.3686408706E-12
    4.7336566879E-12    4.1738200221E-12    3.6802261089E-12    3.2450275212E-12
    2.8613082791E-12    2.5229729991E-12    2.2246492772E-12    1.9616017218E-12
    1.7296562400E-12    1.5251333514E-12    1.3447894477E-12    1.1857650488E-12
    1.0455392192E-12    9.2188940895E-13    8.1285607106E-13    7.1671148543E-13
    6.3193228800E-13    5.5717526294E-13    4.9125600928E-13    4.3313013958E-13
    3.8187670914E-13    3.3668361054E-13    2.9683469953E-13    2.6169844664E-13
    2.3071793308E-13    2.0340203138E-13    1.7931763007E-13    1.5808277846E-13
    1.3936064245E-13    1.2285417523E-13    1.0830141803E-13    9.5471356391E-14
    8.4160266084E-14    7.4188490802E-14    6.5397600436E-14    5.7647884969E-14
    5.0816144295E-14    4.4793738954E-14    3.9484870982E-14    3.4805067657E-14
    3.0679844199E-14    2.7043524280E-14    2.3838199715E-14    2.1012812921E-14
    1.8522347628E-14    1.6327115104E-14    1.4392124597E-14    1.2686528079E-14
    1.1183130525E-14    9.8579579895E-15    8.6898766772E-15    7.6602569887E-15
    6.7526772368E-15    5.9526623572E-15    5.2474534865E-15    4.6258047669E-15
    4.0778041655E-15    3.5947154756E-15    3.1688390036E-15    2.7933887238E-15
    2.4623839575E-15    2.1705541230E-15    1.9132539296E-15    1.6863891145E-15
    1.4863581303E-15    1.3099941043E-15    1.1545055035E-15    1.0174287348E-15
    8.9658986731E-16    7.9007077058E-16    6.9617912705E-16    6.1342195970E-16
    5.4048224433E-16    4.7619825301E-16    4.1954531132E-16    3.6961968890E-16
    3.2562437520E-16    2.8685652096E-16    2.5269635128E-16    2.2259737888E-16
    1.9607776566E-16    1.7271269853E-16    1.5212766103E-16    1.3399249586E-16
    1.1801616584E-16    1.0394213151E-16    9.1544273008E-17    8.0623292499E-17
    7.1003540692E-17    6.2530217672E-17    5.5066904055E-17    4.8493383627E-17
    4.2703723188E-17    3.7604579303E-17    3.3113705252E-17    2.9158634588E-17
    2.5675520462E-17    2.2608112359E-17    1.9906854020E-17    1.7528088235E-17
    1.5433355884E-17    1.3588778096E-17    1.1964511680E-17    1.0534269173E-17
    9.2748958513E-18    8.1659969680E-18    7.1896092546E-18    6.3299114555E-18
    5.5729692603E-18    4.9065105567E-18    4.3197274090E-18    3.8031015882E-18
    3.3482508598E-18    2.9477935639E-18    2.5952293150E-18    2.2848339060E-18
    2.0115667272E-18    1.7709892147E-18    1.5591930146E-18    1.3727367078E-18
    1.2085900772E-18    1.0640850193E-18    9.3687230896E-19    8.2488352098E-19
    7.2629749401E-19    6.4037003781E-19    5.5468435494E-19    5.3080265605E-19
    3.3516514639E-19   -2.6441851521E-20    3.7599669023E-22    3.4386435062E-21
   -8.1234069504E-22    0.0000000000E+00    0.0000000000E+00    0.0000000000E+00
    0.0000000000E+00    0.0000000000E+00    0.0000000000E+00    0.0000000000E+00
    0.0000000000E+00    0.0000000000E+00    0.0000000000E+00    0.0000000000E+00
    0.0000000000E+00    0.0000000000E+00    0.0000000000E+00    0.0000000000E+00
    0.0000000000E+00    0.0000000000E+00    0.0000000000E+00    0.0000000000E+00
    0.0000000000E+00    0.0000000000E+00    0.0000000000E+00    0.0000000000E+00
    0.0000000000E+00    0.0000000000E+00    0.0000000000E+00    0.0000000000E+00
    0.0000000000E+00    0.0000000000E+00    0.0000000000E+00    0.0000000000E+00
    0.0000000000E+00    0.0000000000E+00    0.0000000000E+00    0.0000000000E+00
    0.0000000000E+00    0.0000000000E+00    0.0000000000E+00    0.0000000000E+00
    0.0000000000E+00    0.0000000000E+00    0.0000000000E+00    0.0000000000E+00
    0.0000000000E+00    0.0000000000E+00    0.0000000000E+00    0.0000000000E+00
    0.0000000000E+00    0.0000000000E+00    0.0000000000E+00    0.0000000000E+00
    0.0000000000E+00    0.0000000000E+00    0.0000000000E+00    0.0000000000E+00
    0.0000000000E+00    0.0000000000E+00    0.0000000000E+00    0.0000000000E+00
    0.0000000000E+00    0.0000000000E+00    0.0000000000E+00    0.0000000000E+00
    0.0000000000E+00    0.0000000000E+00    0.0000000000E+00    0.0000000000E+00
    0.0000000000E+00    0.0000000000E+00    0.0000000000E+00    0.0000000000E+00
    0.0000000000E+00    0.0000000000E+00    0.0000000000E+00    0.0000000000E+00
    0.0000000000E+00    0.0000000000E+00    0.0000000000E+00    0.0000000000E+00
    0.0000000000E+00    0.0000000000E+00    0.0000000000E+00    0.0000000000E+00
    0.0000000000E+00    0.0000000000E+00    0.0000000000E+00    0.0000000000E+00
    0.0000000000E+00    0.0000000000E+00    0.0000000000E+00    0.0000000000E+00
    0.0000000000E+00    0.0000000000E+00    0.0000000000E+00    0.0000000000E+00
    0.0000000000E+00    0.0000000000E+00    0.0000000000E+00    0.0000000000E+00
    0.0000000000E+00    0.0000000000E+00    0.0000000000E+00    0.0000000000E+00
    0.0000000000E+00    0.0000000000E+00    0.0000000000E+00    0.0000000000E+00
    0.0000000000E+00    0.0000000000E+00    0.0000000000E+00    0.0000000000E+00
    0.0000000000E+00    0.0000000000E+00    0.0000000000E+00    0.0000000000E+00
    0.0000000000E+00    0.0000000000E+00    0.0000000000E+00    0.0000000000E+00
    0.0000000000E+00    0.0000000000E+00    0.0000000000E+00    0.0000000000E+00
    0.0000000000E+00    0.0000000000E+00    0.0000000000E+00    0.0000000000E+00
    0.0000000000E+00    0.0000000000E+00    0.0000000000E+00    0.0000000000E+00
    0.0000000000E+00    0.0000000000E+00    0.0000000000E+00    0.0000000000E+00
    0.0000000000E+00    0.0000000000E+00    0.0000000000E+00    0.0000000000E+00
    0.0000000000E+00    0.0000000000E+00    0.0000000000E+00    0.0000000000E+00
    0.0000000000E+00    0.0000000000E+00    0.0000000000E+00    0.0000000000E+00
    0.0000000000E+00    0.0000000000E+00    0.0000000000E+00    0.0000000000E+00
    0.0000000000E+00    0.0000000000E+00    0.0000000000E+00    0.0000000000E+00
    0.0000000000E+00    0.0000000000E+00    0.0000000000E+00    0.0000000000E+00
    0.0000000000E+00    0.0000000000E+00    0.0000000000E+00    0.0000000000E+00
    0.0000000000E+00    0.0000000000E+00    0.0000000000E+00    0.0000000000E+00
    0.0000000000E+00    0.0000000000E+00    0.0000000000E+00    0.0000000000E+00
    0.0000000000E+00    0.0000000000E+00    0.0000000000E+00    0.0000000000E+00
    0.0000000000E+00    0.0000000000E+00    0.0000000000E+00    0.0000000000E+00
    0.0000000000E+00    0.0000000000E+00    0.0000000000E+00    0.0000000000E+00
    0.0000000000E+00    0.0000000000E+00    0.0000000000E+00    0.0000000000E+00
    0.0000000000E+00    0.0000000000E+00    0.0000000000E+00    0.0000000000E+00
    0.0000000000E+00    0.0000000000E+00    0.0000000000E+00    0.0000000000E+00
    0.0000000000E+00    0.0000000000E+00    0.0000000000E+00    0.0000000000E+00
    0.0000000000E+00    0.0000000000E+00    0.0000000000E+00    0.0000000000E+00
    0.0000000000E+00    0.0000000000E+00    0.0000000000E+00    0.0000000000E+00
    0.0000000000E+00    0.0000000000E+00    0.0000000000E+00    0.0000000000E+00
    0.0000000000E+00    0.0000000000E+00    0.0000000000E+00    0.0000000000E+00
    0.0000000000E+00    0.0000000000E+00    0.0000000000E+00    0.0000000000E+00
    0.0000000000E+00    0.0000000000E+00    0.0000000000E+00    0.0000000000E+00
    0.0000000000E+00    0.0000000000E+00    0.0000000000E+00    0.0000000000E+00
    0.0000000000E+00    0.0000000000E+00    0.0000000000E+00    0.0000000000E+00
    0.0000000000E+00    0.0000000000E+00    0.0000000000E+00    0.0000000000E+00
    0.0000000000E+00    0.0000000000E+00    0.0000000000E+00    0.0000000000E+00
    0.0000000000E+00    0.0000000000E+00    0.0000000000E+00    0.0000000000E+00
    0.0000000000E+00    0.0000000000E+00    0.0000000000E+00    0.0000000000E+00
    0.0000000000E+00    0.0000000000E+00    0.0000000000E+00    0.0000000000E+00
    0.0000000000E+00    0.0000000000E+00    0.0000000000E+00    0.0000000000E+00
    0.0000000000E+00    0.0000000000E+00    0.0000000000E+00    0.0000000000E+00
    0.0000000000E+00    0.0000000000E+00    0.0000000000E+00    0.0000000000E+00
    0.0000000000E+00    0.0000000000E+00    0.0000000000E+00    0.0000000000E+00
    0.0000000000E+00    0.0000000000E+00    0.0000000000E+00    0.0000000000E+00
    0.0000000000E+00    0.0000000000E+00    0.0000000000E+00    0.0000000000E+00
    0.0000000000E+00    0.0000000000E+00    0.0000000000E+00    0.0000000000E+00
    0.0000000000E+00    0.0000000000E+00    0.0000000000E+00    0.0000000000E+00
    0.0000000000E+00    0.0000000000E+00    0.0000000000E+00    0.0000000000E+00
    0.0000000000E+00    0.0000000000E+00    0.0000000000E+00    0.0000000000E+00
    0.0000000000E+00    0.0000000000E+00    0.0000000000E+00    0.0000000000E+00
    0.0000000000E+00    0.0000000000E+00    0.0000000000E+00    0.0000000000E+00
    0.0000000000E+00    0.0000000000E+00    0.0000000000E+00    0.0000000000E+00
    0.0000000000E+00    0.0000000000E+00    0.0000000000E+00    0.0000000000E+00
    0.0000000000E+00    0.0000000000E+00    0.0000000000E+00    0.0000000000E+00
    0.0000000000E+00    0.0000000000E+00    0.0000000000E+00    0.0000000000E+00
    0.0000000000E+00    0.0000000000E+00    0.0000000000E+00    0.0000000000E+00
    0.0000000000E+00    0.0000000000E+00    0.0000000000E+00    0.0000000000E+00
    0.0000000000E+00    0.0000000000E+00    0.0000000000E+00    0.0000000000E+00
    0.0000000000E+00    0.0000000000E+00    0.0000000000E+00    0.0000000000E+00
    0.0000000000E+00    0.0000000000E+00    0.0000000000E+00    0.0000000000E+00
    0.0000000000E+00    0.0000000000E+00    0.0000000000E+00    0.0000000000E+00
    0.0000000000E+00    0.0000000000E+00    0.0000000000E+00    0.0000000000E+00
    0.0000000000E+00    0.0000000000E+00    0.0000000000E+00    0.0000000000E+00
    0.0000000000E+00    0.0000000000E+00    0.0000000000E+00    0.0000000000E+00
    0.0000000000E+00    0.0000000000E+00    0.0000000000E+00    0.0000000000E+00
    0.0000000000E+00    0.0000000000E+00    0.0000000000E+00    0.0000000000E+00
    0.0000000000E+00    0.0000000000E+00    0.0000000000E+00    0.0000000000E+00
    0.0000000000E+00    0.0000000000E+00    0.0000000000E+00    0.0000000000E+00
    0.0000000000E+00    0.0000000000E+00    0.0000000000E+00    0.0000000000E+00
    0.0000000000E+00    0.0000000000E+00    0.0000000000E+00    0.0000000000E+00
    0.0000000000E+00    0.0000000000E+00    0.0000000000E+00    0.0000000000E+00
    0.0000000000E+00    0.0000000000E+00    0.0000000000E+00    0.0000000000E+00
    0.0000000000E+00    0.0000000000E+00    0.0000000000E+00    0.0000000000E+00
    0.0000000000E+00    0.0000000000E+00    0.0000000000E+00    0.0000000000E+00
    0.0000000000E+00    0.0000000000E+00    0.0000000000E+00    0.0000000000E+00
    0.0000000000E+00    0.0000000000E+00    0.0000000000E+00    0.0000000000E+00
    0.0000000000E+00    0.0000000000E+00    0.0000000000E+00    0.0000000000E+00
    0.0000000000E+00    0.0000000000E+00    0.0000000000E+00    0.0000000000E+00
    0.0000000000E+00    0.0000000000E+00    0.0000000000E+00    0.0000000000E+00
    0.0000000000E+00    0.0000000000E+00    0.0000000000E+00    0.0000000000E+00
    0.0000000000E+00    0.0000000000E+00    0.0000000000E+00    0.0000000000E+00
    0.0000000000E+00    0.0000000000E+00    0.0000000000E+00    0.0000000000E+00
    0.0000000000E+00    0.0000000000E+00    0.0000000000E+00    0.0000000000E+00
    0.0000000000E+00    0.0000000000E+00    0.0000000000E+00    0.0000000000E+00
    0.0000000000E+00    0.0000000000E+00    0.0000000000E+00    0.0000000000E+00
    0.0000000000E+00    0.0000000000E+00    0.0000000000E+00    0.0000000000E+00
    0.0000000000E+00    0.0000000000E+00    0.0000000000E+00    0.0000000000E+00
    0.0000000000E+00    0.0000000000E+00    0.0000000000E+00    0.0000000000E+00
    0.0000000000E+00    0.0000000000E+00    0.0000000000E+00    0.0000000000E+00
    0.0000000000E+00    0.0000000000E+00    0.0000000000E+00    0.0000000000E+00
    0.0000000000E+00    0.0000000000E+00    0.0000000000E+00    0.0000000000E+00
    0.0000000000E+00    0.0000000000E+00    0.0000000000E+00    0.0000000000E+00
    0.0000000000E+00    0.0000000000E+00    0.0000000000E+00    0.0000000000E+00
    0.0000000000E+00    0.0000000000E+00    0.0000000000E+00    0.0000000000E+00
    0.0000000000E+00    0.0000000000E+00    0.0000000000E+00    0.0000000000E+00
    0.0000000000E+00    0.0000000000E+00    0.0000000000E+00    0.0000000000E+00
    0.0000000000E+00    0.0000000000E+00    0.0000000000E+00    0.0000000000E+00
    0.0000000000E+00    0.0000000000E+00    0.0000000000E+00    0.0000000000E+00
    0.0000000000E+00    0.0000000000E+00    0.0000000000E+00    0.0000000000E+00
    0.0000000000E+00    0.0000000000E+00    0.0000000000E+00    0.0000000000E+00
    0.0000000000E+00    0.0000000000E+00    0.0000000000E+00    0.0000000000E+00
    0.0000000000E+00    0.0000000000E+00    0.0000000000E+00    0.0000000000E+00
    0.0000000000E+00    0.0000000000E+00    0.0000000000E+00    0.0000000000E+00
    0.0000000000E+00    0.0000000000E+00    0.0000000000E+00    0.0000000000E+00
    0.0000000000E+00    0.0000000000E+00    0.0000000000E+00    0.0000000000E+00
    0.0000000000E+00    0.0000000000E+00    0.0000000000E+00    0.0000000000E+00
    0.0000000000E+00    0.0000000000E+00
 </PP_TAUMOD>
 <PP_TAUATOM type="real"  size=" 910" columns="4">
    9.8314025789E+00    9.8246378997E+00    9.8043751554E+00    9.7707080527E+00
    9.7237920033E+00    9.6638429965E+00    9.5911360307E+00    9.5060031207E+00
    9.4088309004E+00    9.3000578414E+00    9.1801711144E+00    9.0497031212E+00
    8.9092277284E+00    8.7593562384E+00    8.6007331318E+00    8.4340316212E+00
    8.2599490554E+00    8.0792022142E+00    7.8925225357E+00    7.7006513176E+00
    7.5043349335E+00    7.3043201047E+00    7.1013492682E+00    6.8961560773E+00
    6.6894610726E+00    6.4819675567E+00    6.2743577046E+00    6.0672889380E+00
    5.8613905892E+00    5.6572608773E+00    5.4554642150E+00    5.2565288600E+00
    5.0609449252E+00    4.8691627507E+00    4.6815916456E+00    4.4985989957E+00
    4.3205097351E+00    4.1476061741E+00    3.9801281703E+00    3.8182736322E+00
    3.6621993339E+00    3.5120220248E+00    3.3678198099E+00    3.2296337764E+00
    3.0974698420E+00    2.9713007963E+00    2.8510685079E+00    2.7366862678E+00
    2.6280412403E+00    2.5249969926E+00    2.4273960748E+00    2.3350626214E+00
    2.2478049504E+00    2.1654181310E+00    2.0876865009E+00    2.0143861071E+00
    1.9452870540E+00    1.8801557410E+00    1.8187569710E+00    1.7608559187E+00
    1.7062199509E+00    1.6546202869E+00    1.6058334965E+00    1.5596428284E+00
    1.5158393705E+00    1.4742230405E+00    1.4346034108E+00    1.3968003709E+00
    1.3606446328E+00    1.3259780882E+00    1.2926540240E+00    1.2605372071E+00
    1.2295038483E+00    1.1994414554E+00    1.1702485879E+00    1.1418345237E+00
    1.1141188510E+00    1.0870309947E+00    1.0605096904E+00    1.0345024161E+00
    1.0089647924E+00    9.8385996037E-01    9.5915794717E-01    9.3483502766E-01
    9.1087308934E-01    8.8725900811E-01    8.6398404069E-01    8.4104323914E-01
    8.1843489194E-01    7.9615999539E-01    7.7422175829E-01    7.5262514206E-01
    7.3137643801E-01    7.1048288244E-01    6.8995231015E-01    6.6979284600E-01
    6.5001263380E-01    6.3061960176E-01    6.1162126261E-01    5.9302454713E-01
    5.7483566876E-01    5.5706001729E-01    5.3970207944E-01    5.2276538364E-01
    5.0625246695E-01    4.9016486130E-01    4.7450309700E-01    4.5926672081E-01
    4.4445432661E-01    4.3006359618E-01    4.1609134841E-01    4.0253359461E-01
    3.8938559865E-01    3.7664193985E-01    3.6429657766E-01    3.5234291650E-01
    3.4077386998E-01    3.2958192334E-01    3.1875919358E-01    3.0829748651E-01
    2.9818835038E-01    2.8842312569E-01    2.7899299106E-01    2.6988900504E-01
    2.6110214378E-01    2.5262333488E-01    2.4444348788E-01    2.3655352321E-01
    2.2894439511E-01    2.2160711166E-01    2.1453275296E-01    2.0771248727E-01
    2.0113758534E-01    1.9479943328E-01    1.8868954432E-01    1.8279956985E-01
    1.7712117656E-01    1.7164494249E-01    1.6636102931E-01    1.6125995719E-01
    1.5633261921E-01    1.5157029112E-01    1.4696463862E-01    1.4250772360E-01
    1.3819200766E-01    1.3401035613E-01    1.2995615595E-01    1.2602461317E-01
    1.2221216012E-01    1.1851532875E-01    1.1493074189E-01    1.1145510903E-01
    1.0808522494E-01    1.0481796824E-01    1.0165029993E-01    9.8579261972E-02
    9.5601975770E-02    9.2715640672E-02    8.9917532438E-02    8.7205001503E-02
    8.4575472279E-02    8.2026440344E-02    7.9555471694E-02    7.7160201035E-02
    7.4838330214E-02    7.2587626687E-02    7.0405921986E-02    6.8291110203E-02
    6.6241146477E-02    6.4254045511E-02    6.2327880089E-02    6.0460779621E-02
    5.8650928703E-02    5.6896565696E-02    5.5195981330E-02    5.3547517324E-02
    5.1949565033E-02    5.0400564119E-02    4.8899001241E-02    4.7443408774E-02
    4.6032363550E-02    4.4664485624E-02    4.3338437071E-02    4.2052920797E-02
    4.0806679388E-02    3.9598493975E-02    3.8427183130E-02    3.7291601784E-02
    3.6190640175E-02    3.5123222817E-02    3.4088307494E-02    3.3084884281E-02
    3.2111974590E-02    3.1168630236E-02    3.0253932534E-02    2.9366991409E-02
    2.8506944544E-02    2.7672956534E-02    2.6864218079E-02    2.6079945184E-02
    2.5319378394E-02    2.4581782039E-02    2.3866443510E-02    2.3172672548E-02
    2.2499800554E-02    2.1847179924E-02    2.1214183397E-02    2.0600203425E-02
    2.0004651560E-02    1.9426957860E-02    1.8866570311E-02    1.8322954270E-02
    1.7795591915E-02    1.7283981725E-02    1.6787637963E-02    1.6306090185E-02
    1.5838882753E-02    1.5385574373E-02    1.4945737641E-02    1.4518958605E-02
    1.4104836338E-02    1.3702982529E-02    1.3313021082E-02    1.2934587726E-02
    1.2567329647E-02    1.2210905118E-02    1.1864983150E-02    1.1529243151E-02
    1.1203374593E-02    1.0887076697E-02    1.0580058115E-02    1.0282036640E-02
    9.9927389047E-03    9.7119001083E-03    9.4392637383E-03    9.1745813092E-03
    8.9176121053E-03    8.6681229340E-03    8.4258878855E-03    8.1906881009E-03
    7.9623115473E-03    7.7405528003E-03    7.5252128333E-03    7.3160988137E-03
    7.1130239054E-03    6.9158070775E-03    6.7242729197E-03    6.5382514631E-03
    6.3575780066E-03    6.1820929496E-03    6.0116416293E-03    5.8460741634E-03
    5.6852452983E-03    5.5290142617E-03    5.3772446201E-03    5.2298041406E-03
    5.0865646578E-03    4.9474019442E-03    4.8121955854E-03    4.6808288590E-03
    4.5531886171E-03    4.4291651736E-03    4.3086521937E-03    4.1915465884E-03
    4.0777484110E-03    3.9671607584E-03    3.8596896741E-03    3.7552440555E-03
    3.6537355636E-03    3.5550785358E-03    3.4591899014E-03    3.3659890999E-03
    3.2753980019E-03    3.1873408328E-03    3.1017440984E-03    3.0185365139E-03
    2.9376489337E-03    2.8590142853E-03    2.7825675036E-03    2.7082454688E-03
    2.6359869454E-03    2.5657325232E-03    2.4974245611E-03    2.4310071317E-03
    2.3664259682E-03    2.3036284133E-03    2.2425633691E-03    2.1831812492E-03
    2.1254339323E-03    2.0692747170E-03    2.0146582788E-03    1.9615406274E-03
    1.9098790666E-03    1.8596321550E-03    1.8107596676E-03    1.7632225594E-03
    1.7169829301E-03    1.6720039893E-03    1.6282500237E-03    1.5856863647E-03
    1.5442793578E-03    1.5039963324E-03    1.4648055728E-03    1.4266762903E-03
    1.3895785962E-03    1.3534834752E-03    1.3183627608E-03    1.2841891101E-03
    1.2509359807E-03    1.2185776074E-03    1.1870889803E-03    1.1564458233E-03
    1.1266245734E-03    1.0976023606E-03    1.0693569882E-03    1.0418669152E-03
    1.0151112357E-03    9.8906965963E-04    9.6372250610E-04    9.3905067930E-04
    9.1503560378E-04    8.9165918177E-04    8.6890380840E-04    8.4675237818E-04
    8.2518827125E-04    8.0419533865E-04    7.8375788873E-04    7.6386067401E-04
    7.4448887843E-04    7.2562810486E-04    7.0726436307E-04    6.8938405797E-04
    6.7197397824E-04    6.5502128528E-04    6.3851350244E-04    6.2243850462E-04
    6.0678450811E-04    5.9154006079E-04    5.7669403257E-04    5.6223560609E-04
    5.4815426774E-04    5.3443979891E-04    5.2108226752E-04    5.0807201974E-04
    4.9539967200E-04    4.8305610326E-04    4.7103244741E-04    4.5932008598E-04
    4.4791064099E-04    4.3679596812E-04    4.2596814994E-04    4.1541948942E-04
    4.0514250362E-04    3.9512991757E-04    3.8537465829E-04    3.7586984902E-04
    3.6660880361E-04    3.5758502108E-04    3.4879218031E-04    3.4022413491E-04
    3.3187490826E-04    3.2373868864E-04    3.1580982454E-04    3.0808282011E-04
    3.0055233071E-04    2.9321315864E-04    2.8606024892E-04    2.7908868528E-04
    2.7229368622E-04    2.6567060117E-04    2.5921490678E-04    2.5292220334E-04
    2.4678821127E-04    2.4080876772E-04    2.3497982329E-04    2.2929743882E-04
    2.2375778227E-04    2.1835712573E-04    2.1309184245E-04    2.0795840405E-04
    2.0295337769E-04    1.9807342346E-04    1.9331529172E-04    1.8867582057E-04
    1.8415193343E-04    1.7974063664E-04    1.7543901712E-04    1.7124424015E-04
    1.6715354716E-04    1.6316425363E-04    1.5927374700E-04    1.5547948471E-04
    1.5177899220E-04    1.4816986108E-04    1.4464974725E-04    1.4121636914E-04
    1.3786750597E-04    1.3460099607E-04    1.3141473526E-04    1.2830667524E-04
    1.2527482207E-04    1.2231723465E-04    1.1943202329E-04    1.1661734828E-04
    1.1387141852E-04    1.1119249020E-04    1.0857886548E-04    1.0602889124E-04
    1.0354095787E-04    1.0111349807E-04    9.8744985672E-05    9.6433934572E-05
    9.4178897588E-05    9.1978465424E-05    8.9831265634E-05    8.7735961624E-05
    8.5691251676E-05    8.3695868002E-05    8.1748575828E-05    7.9848172499E-05
    7.7993486612E-05    7.6183377171E-05    7.4416732766E-05    7.2692470779E-05
    7.1009536605E-05    6.9366902903E-05    6.7763568861E-05    6.6198559485E-05
    6.4670924904E-05    6.3179739704E-05    6.1724102267E-05    6.0303134139E-05
    5.8915979410E-05    5.7561804114E-05    5.6239795642E-05    5.4949162178E-05
    5.3689132143E-05    5.2458953656E-05    5.1257894017E-05    5.0085239193E-05
    4.8940293328E-05    4.7822378259E-05    4.6730833052E-05    4.5665013545E-05
    4.4624291904E-05    4.3608056198E-05    4.2615709977E-05    4.1646671866E-05
    4.0700375170E-05    3.9776267487E-05    3.8873810335E-05    3.7992478790E-05
    3.7131761124E-05    3.6291158470E-05    3.5470184481E-05    3.4668365001E-05
    3.3885237756E-05    3.3120352036E-05    3.2373268400E-05    3.1643558382E-05
    3.0930804207E-05    3.0234598513E-05    2.9554544080E-05    2.8890253574E-05
    2.8241349282E-05    2.7607462875E-05    2.6988235156E-05    2.6383315832E-05
    2.5792363280E-05    2.5215044329E-05    2.4651034039E-05    2.4100015492E-05
    2.3561679586E-05    2.3035724834E-05    2.2521857174E-05    2.2019789770E-05
    2.1529242839E-05    2.1049943462E-05    2.0581625414E-05    2.0124028993E-05
    1.9676900853E-05    1.9239993843E-05    1.8813066853E-05    1.8395884656E-05
    1.7988217761E-05    1.7589842270E-05    1.7200539735E-05    1.6820097018E-05
    1.6448306164E-05    1.6084964263E-05    1.5729873326E-05    1.5382840164E-05
    1.5043676263E-05    1.4712197668E-05    1.4388224873E-05    1.4071582702E-05
    1.3762100207E-05    1.3459610559E-05    1.3163950947E-05    1.2874962476E-05
    1.2592490072E-05    1.2316382384E-05    1.2046491693E-05    1.1782673821E-05
    1.1524788044E-05    1.1272697006E-05    1.1026266636E-05    1.0785366065E-05
    1.0549867548E-05    1.0319646386E-05    1.0094580855E-05    9.8745521246E-06
    9.6594441945E-06    9.4491438201E-06    9.2435404468E-06    9.0425261432E-06
    8.8459955368E-06    8.6538457514E-06    8.4659763458E-06    8.2822892542E-06
    8.1026887280E-06    7.9270812796E-06    7.7553756266E-06    7.5874826386E-06
    7.4233152841E-06    7.2627885800E-06    7.1058195416E-06    6.9523271338E-06
    6.8022322240E-06    6.6554575359E-06    6.5119276044E-06    6.3715687317E-06
    6.2343089450E-06    6.1000779541E-06    5.9688071112E-06    5.8404293712E-06
    5.7148792531E-06    5.5920928020E-06    5.4720075527E-06    5.3545624940E-06
    5.2396980332E-06    5.1273559626E-06    5.0174794259E-06    4.9100128862E-06
    4.8049020940E-06    4.7020940565E-06    4.6015370078E-06    4.5031803793E-06
    4.4069747714E-06    4.3128719252E-06    4.2208246959E-06    4.1307870257E-06
    4.0427139184E-06    3.9565614139E-06    3.8722865636E-06    3.7898474066E-06
    3.7092029461E-06    3.6303131266E-06    3.5531388116E-06    3.4776417621E-06
    3.4037846150E-06    3.3315308625E-06    3.2608448323E-06    3.1916916676E-06
    3.1240373076E-06    3.0578484695E-06    2.9930926295E-06    2.9297380054E-06
    2.8677535389E-06    2.8071088790E-06    2.7477743649E-06    2.6897210102E-06
    2.6329204871E-06    2.5773451107E-06    2.5229678244E-06    2.4697621850E-06
    2.4177023481E-06    2.3667630548E-06    2.3169196175E-06    2.2681479069E-06
    2.2204243386E-06    2.1737258611E-06    2.1280299429E-06    2.0833145606E-06
    2.0395581869E-06    1.9967397796E-06    1.9548387700E-06    1.9138350517E-06
    1.8737089706E-06    1.8344413138E-06    1.7960132997E-06    1.7584065683E-06
    1.7216031707E-06    1.6855855605E-06    1.6503365839E-06    1.6158394713E-06
    1.5820778275E-06    1.5490356243E-06    1.5166971909E-06    1.4850472067E-06
    1.4540706926E-06    1.4237530033E-06    1.3940798201E-06    1.3650371426E-06
    1.3366112824E-06    1.3087888552E-06    1.2815567742E-06    1.2549022431E-06
    1.2288127499E-06    1.2032760600E-06    1.1782802099E-06    1.1538135014E-06
    1.1298644951E-06    1.1064220050E-06    1.0834750922E-06    1.0610130599E-06
    1.0390254472E-06    1.0175020245E-06    9.9643278776E-07    9.7580795355E-07
    9.5561795405E-07    9.3585343220E-07    9.1650523690E-07    8.9756441838E-07
    8.7902222367E-07    8.6087009214E-07    8.4309965119E-07    8.2570271198E-07
    8.0867126533E-07    7.9199747767E-07    7.7567368711E-07    7.5969239952E-07
    7.4404628485E-07    7.2872817340E-07    7.1373105224E-07    6.9904806167E-07
    6.8467249184E-07    6.7059777937E-07    6.5681750406E-07    6.4332538570E-07
    6.3011528099E-07    6.1718118039E-07    6.0451720522E-07    5.9211760471E-07
    5.7997675316E-07    5.6808914712E-07    5.5644940273E-07    5.4505225300E-07
    5.3389254527E-07    5.2296523861E-07    5.1226540139E-07    5.0178820884E-07
    4.9152894066E-07    4.8148297872E-07    4.7164580482E-07    4.6201299844E-07
    4.5258023460E-07    4.4334328174E-07    4.3429799965E-07    4.2544033748E-07
    4.1676633175E-07    4.0827210440E-07    3.9995386095E-07    3.9180788862E-07
    3.8383055457E-07    3.7601830410E-07    3.6836765895E-07    3.6087521564E-07
    3.5353764378E-07    3.4635168450E-07    3.3931414889E-07    3.3242191642E-07
    3.2567193349E-07    3.1906121192E-07    3.1258682756E-07    3.0624591884E-07
    3.0003568547E-07    2.9395338701E-07    2.8799634165E-07    2.8216192486E-07
    2.7644756819E-07    2.7085075801E-07    2.6536903435E-07    2.5999998970E-07
    2.5474126787E-07    2.4959056290E-07    2.4454561792E-07    2.3960422413E-07
    2.3476421975E-07    2.3002348894E-07    2.2537996089E-07    2.2083160878E-07
    2.1637644883E-07    2.1201253940E-07    2.0773798006E-07    2.0355091069E-07
    1.9944951059E-07    1.9543199770E-07    1.9149662766E-07    1.8764169308E-07
    1.8386552271E-07    1.8016648064E-07    1.7654296558E-07    1.7299341008E-07
    1.6951627980E-07    1.6611007282E-07    1.6277331892E-07    1.5950457892E-07
    1.5630244398E-07    1.5316553497E-07    1.5009250183E-07    1.4708202293E-07
    1.4413280450E-07    1.4124357996E-07    1.3841310942E-07    1.3564017904E-07
    1.3292360050E-07    1.3026221046E-07    1.2765487001E-07    1.2510046416E-07
    1.2259790132E-07    1.2014611279E-07    1.1774405228E-07    1.1539069546E-07
    1.1308503942E-07    1.1082610230E-07    1.0861292277E-07    1.0644455962E-07
    1.0432009133E-07    1.0223861566E-07    1.0019924923E-07    9.8201127101E-08
    9.6243402412E-08    9.4325245980E-08    9.2445845928E-08    9.0604407314E-08
    8.8800151774E-08    8.7032317169E-08    8.5300157240E-08    8.3602941274E-08
    8.1939953769E-08    8.0310494116E-08    7.8713876282E-08    7.7149428503E-08
    7.5616492976E-08    7.4114425571E-08    7.2642595538E-08    7.1200385225E-08
    6.9787189798E-08    6.8402416976E-08    6.7045486762E-08    6.5715831184E-08
    6.4412894042E-08    6.3136130660E-08    6.1885007642E-08    6.0659002636E-08
    5.9457604098E-08    5.8280311069E-08    5.7126632949E-08    5.5996089279E-08
    5.4888209532E-08    5.3802532896E-08    5.2738608078E-08    5.1695993101E-08
    5.0674255106E-08    4.9672970165E-08    4.8691723091E-08    4.7730107255E-08
    4.6787724405E-08    4.5864184496E-08    4.4959105511E-08    4.4072113299E-08
    4.3202841404E-08    4.2350930912E-08    4.1516030287E-08    4.0697795216E-08
    3.9895888467E-08    3.9109979728E-08    3.8339745475E-08    3.7584868821E-08
    3.6845039383E-08    3.6119953145E-08    3.5409312323E-08    3.4712825239E-08
    3.4030206190E-08    3.3361175327E-08    3.2705458529E-08    3.2062787290E-08
    3.1432898596E-08    3.0815534814E-08    3.0210443579E-08    2.9617377685E-08
    2.9036094979E-08    2.8466358253E-08    2.7907935147E-08    2.7360598040E-08
    2.6824123960E-08    2.6298294483E-08    2.5782895640E-08    2.5277717824E-08
    2.4782555700E-08    2.4297208119E-08    2.3821478026E-08    2.3355172382E-08
    2.2898102074E-08    2.2450081840E-08    2.2010930185E-08    2.1580469306E-08
    2.1158525015E-08    2.0744926661E-08    2.0339507065E-08    1.9942102439E-08
    1.9552552324E-08    1.9170699515E-08    1.8796389998E-08    1.8429472885E-08
    1.8069800345E-08    1.7717227545E-08    1.7371612588E-08    1.7032816450E-08
    1.6700702924E-08    1.6375138560E-08    1.6055992611E-08    1.5743136972E-08
    1.5436446134E-08    1.5135797121E-08    1.4841069448E-08    1.4552145062E-08
    1.4268908296E-08    1.3991245818E-08    1.3719046587E-08    1.3452201801E-08
    1.3190604855E-08    1.2934151293E-08    1.2682738768E-08    1.2436266995E-08
    1.2194637710E-08    1.1957754630E-08    1.1725523410E-08    1.1497851607E-08
    1.1274648637E-08    1.1055825741E-08    1.0841295944E-08    1.0630974021E-08
    1.0424776462E-08    1.0222621434E-08    1.0024428750E-08    9.8301198324E-09
    9.6396176839E-09    9.4528468516E-09    9.2697333981E-09    9.0902048692E-09
    8.9141902647E-09    8.7416200082E-09    8.5724259186E-09    8.4065411812E-09
    8.2439003205E-09    8.0844391725E-09    7.9280948585E-09    7.7748057587E-09
    7.6245114867E-09    7.4771528646E-09    7.3326718985E-09    7.1910117541E-09
    7.0521167339E-09    6.9159322534E-09    6.7824048190E-09    6.6514820061E-09
    6.5231124367E-09    6.3972457591E-09    6.2738326265E-09    6.1528246769E-09
    6.0341745134E-09    5.9178356841E-09    5.8037626637E-09    5.6919108342E-09
    5.5822364671E-09    5.4746967050E-09    5.3692495441E-09    5.2658538171E-09
    5.1644691765E-09    5.0650560775E-09    4.9675757625E-09    4.8719902445E-09
    4.7782622924E-09    4.6863554149E-09    4.5962338465E-09    4.5078625319E-09
    4.4212071128E-09    4.3362339128E-09    4.2529099246E-09    4.1712027958E-09
    4.0910808162E-09    4.0125129048E-09    3.9354685972E-09    3.8599180328E-09
    3.7858319435E-09    3.7131816407E-09    3.6419390049E-09    3.5720764733E-09
    3.5035670290E-09    3.4363841902E-09    3.3705019992E-09    3.3058950120E-09
    3.2425382882E-09    3.1804073806E-09    3.1194783255E-09    3.0597276329E-09
    3.0011322771E-09    2.9436696876E-09
 </PP_TAUATOM>
</UPF>