<UPF version="2.0.1">
  <PP_INFO>

 This pseudopotential file has been produced using the code
 METAPSP-1.0.0, a code for metagga functails adapted in 2024 from
 ONCVPSP  (Optimized Norm-Conservinng Vanderbilt PSeudopotential)
 scalar-relativistic version 4.0.1 06/04/2019 by D. R. Hamann
 The code is available through a link at URL www.mat-simresearch.com.
 Documentation with the package provides a full discription of the
 input data below.


 While it is not required under the terms of the GNU GPL, it is
 suggested that you cite D. R. Hamann, Phys. Rev. B 88, 085117 (2013)
 in any publication using these pseudopotentials.

    <PP_INPUTFILE>
# ATOM AND REFERENCE CONFIGURATION
# atsym  z   nc   nv     iexc    psfile
  Ti 22.00    3    4       5      upf
#
#   n    l    f        energy (Ha)
    1    0    2.00
    2    0    2.00
    2    1    6.00
    3    0    2.00
    3    1    6.00
    3    2    2.00
    4    0    2.00
#
# PSEUDOPOTENTIAL AND OPTIMIZATION
# lmax
    2
#
#   l,   rc,      ep,       ncon, nbas, qcut
    0   1.35000  -2.30174    4    8   8.60000
    1   1.30000  -1.42811    4    8   9.00000
    2   1.65000  -0.15651    4    8   9.00000
#
# LOCAL POTENTIAL
# lloc, lpopt,  rc(5),   dvloc0
    4    5   1.30000      0.00000
#
# VANDERBILT-KLEINMAN-BYLANDER PROJECTORs
# l, nproj, debl
    0    2   2.13758
    1    2   2.00000
    2    2   1.50000
#
# MODEL CORE CHARGE
# icmod, fcfact, rcfact
    5   3.00000   0.50000
#
# LOG DERIVATIVE ANALYSIS
# epsh1, epsh2, depsh
  -12.00   12.00    0.02
#
# OUTPUT GRID
# rlmax, drl
    6.00    0.01
#
# TEST CONFIGURATIONS
# ncnf
    0
# nvcnf
#   n    l    f
    </PP_INPUTFILE>
  </PP_INFO>
  <!--                               -->
  <!-- END OF HUMAN READABLE SECTION -->
  <!--                               -->
    <PP_HEADER
       generated="Generated using METAPSP code by D. R. Hamann"
       author="anonymous"
       date="260622"
       comment=""
       element="Ti"
       pseudo_type="NC"
       relativistic="scalar"
       is_ultrasoft="F"
       is_paw="F"
       is_coulomb="F"
       has_so="F"
       has_wfc="F"
       has_gipaw="F"
       core_correction="T"
       with_metagga_info="T"
       functional="R2SCAN01"
       z_valence="   12.00"
       total_psenergy="  -4.91252914920E+01"
       rho_cutoff="   1.55300000000E+01"
       l_max="2"
       l_local="-1"
       mesh_size="  1554"
       number_of_wfc="4"
       number_of_proj="6"/>
 <PP_MESH>
   <PP_R type="real"  size="1554" columns="8">
    0.0000    0.0100    0.0200    0.0300    0.0400    0.0500    0.0600    0.0700
    0.0800    0.0900    0.1000    0.1100    0.1200    0.1300    0.1400    0.1500
    0.1600    0.1700    0.1800    0.1900    0.2000    0.2100    0.2200    0.2300
    0.2400    0.2500    0.2600    0.2700    0.2800    0.2900    0.3000    0.3100
    0.3200    0.3300    0.3400    0.3500    0.3600    0.3700    0.3800    0.3900
    0.4000    0.4100    0.4200    0.4300    0.4400    0.4500    0.4600    0.4700
    0.4800    0.4900    0.5000    0.5100    0.5200    0.5300    0.5400    0.5500
    0.5600    0.5700    0.5800    0.5900    0.6000    0.6100    0.6200    0.6300
    0.6400    0.6500    0.6600    0.6700    0.6800    0.6900    0.7000    0.7100
    0.7200    0.7300    0.7400    0.7500    0.7600    0.7700    0.7800    0.7900
    0.8000    0.8100    0.8200    0.8300    0.8400    0.8500    0.8600    0.8700
    0.8800    0.8900    0.9000    0.9100    0.9200    0.9300    0.9400    0.9500
    0.9600    0.9700    0.9800    0.9900    1.0000    1.0100    1.0200    1.0300
    1.0400    1.0500    1.0600    1.0700    1.0800    1.0900    1.1000    1.1100
    1.1200    1.1300    1.1400    1.1500    1.1600    1.1700    1.1800    1.1900
    1.2000    1.2100    1.2200    1.2300    1.2400    1.2500    1.2600    1.2700
    1.2800    1.2900    1.3000    1.3100    1.3200    1.3300    1.3400    1.3500
    1.3600    1.3700    1.3800    1.3900    1.4000    1.4100    1.4200    1.4300
    1.4400    1.4500    1.4600    1.4700    1.4800    1.4900    1.5000    1.5100
    1.5200    1.5300    1.5400    1.5500    1.5600    1.5700    1.5800    1.5900
    1.6000    1.6100    1.6200    1.6300    1.6400    1.6500    1.6600    1.6700
    1.6800    1.6900    1.7000    1.7100    1.7200    1.7300    1.7400    1.7500
    1.7600    1.7700    1.7800    1.7900    1.8000    1.8100    1.8200    1.8300
    1.8400    1.8500    1.8600    1.8700    1.8800    1.8900    1.9000    1.9100
    1.9200    1.9300    1.9400    1.9500    1.9600    1.9700    1.9800    1.9900
    2.0000    2.0100    2.0200    2.0300    2.0400    2.0500    2.0600    2.0700
    2.0800    2.0900    2.1000    2.1100    2.1200    2.1300    2.1400    2.1500
    2.1600    2.1700    2.1800    2.1900    2.2000    2.2100    2.2200    2.2300
    2.2400    2.2500    2.2600    2.2700    2.2800    2.2900    2.3000    2.3100
    2.3200    2.3300    2.3400    2.3500    2.3600    2.3700    2.3800    2.3900
    2.4000    2.4100    2.4200    2.4300    2.4400    2.4500    2.4600    2.4700
    2.4800    2.4900    2.5000    2.5100    2.5200    2.5300    2.5400    2.5500
    2.5600    2.5700    2.5800    2.5900    2.6000    2.6100    2.6200    2.6300
    2.6400    2.6500    2.6600    2.6700    2.6800    2.6900    2.7000    2.7100
    2.7200    2.7300    2.7400    2.7500    2.7600    2.7700    2.7800    2.7900
    2.8000    2.8100    2.8200    2.8300    2.8400    2.8500    2.8600    2.8700
    2.8800    2.8900    2.9000    2.9100    2.9200    2.9300    2.9400    2.9500
    2.9600    2.9700    2.9800    2.9900    3.0000    3.0100    3.0200    3.0300
    3.0400    3.0500    3.0600    3.0700    3.0800    3.0900    3.1000    3.1100
    3.1200    3.1300    3.1400    3.1500    3.1600    3.1700    3.1800    3.1900
    3.2000    3.2100    3.2200    3.2300    3.2400    3.2500    3.2600    3.2700
    3.2800    3.2900    3.3000    3.3100    3.3200    3.3300    3.3400    3.3500
    3.3600    3.3700    3.3800    3.3900    3.4000    3.4100    3.4200    3.4300
    3.4400    3.4500    3.4600    3.4700    3.4800    3.4900    3.5000    3.5100
    3.5200    3.5300    3.5400    3.5500    3.5600    3.5700    3.5800    3.5900
    3.6000    3.6100    3.6200    3.6300    3.6400    3.6500    3.6600    3.6700
    3.6800    3.6900    3.7000    3.7100    3.7200    3.7300    3.7400    3.7500
    3.7600    3.7700    3.7800    3.7900    3.8000    3.8100    3.8200    3.8300
    3.8400    3.8500    3.8600    3.8700    3.8800    3.8900    3.9000    3.9100
    3.9200    3.9300    3.9400    3.9500    3.9600    3.9700    3.9800    3.9900
    4.0000    4.0100    4.0200    4.0300    4.0400    4.0500    4.0600    4.0700
    4.0800    4.0900    4.1000    4.1100    4.1200    4.1300    4.1400    4.1500
    4.1600    4.1700    4.1800    4.1900    4.2000    4.2100    4.2200    4.2300
    4.2400    4.2500    4.2600    4.2700    4.2800    4.2900    4.3000    4.3100
    4.3200    4.3300    4.3400    4.3500    4.3600    4.3700    4.3800    4.3900
    4.4000    4.4100    4.4200    4.4300    4.4400    4.4500    4.4600    4.4700
    4.4800    4.4900    4.5000    4.5100    4.5200    4.5300    4.5400    4.5500
    4.5600    4.5700    4.5800    4.5900    4.6000    4.6100    4.6200    4.6300
    4.6400    4.6500    4.6600    4.6700    4.6800    4.6900    4.7000    4.7100
    4.7200    4.7300    4.7400    4.7500    4.7600    4.7700    4.7800    4.7900
    4.8000    4.8100    4.8200    4.8300    4.8400    4.8500    4.8600    4.8700
    4.8800    4.8900    4.9000    4.9100    4.9200    4.9300    4.9400    4.9500
    4.9600    4.9700    4.9800    4.9900    5.0000    5.0100    5.0200    5.0300
    5.0400    5.0500    5.0600    5.0700    5.0800    5.0900    5.1000    5.1100
    5.1200    5.1300    5.1400    5.1500    5.1600    5.1700    5.1800    5.1900
    5.2000    5.2100    5.2200    5.2300    5.2400    5.2500    5.2600    5.2700
    5.2800    5.2900    5.3000    5.3100    5.3200    5.3300    5.3400    5.3500
    5.3600    5.3700    5.3800    5.3900    5.4000    5.4100    5.4200    5.4300
    5.4400    5.4500    5.4600    5.4700    5.4800    5.4900    5.5000    5.5100
    5.5200    5.5300    5.5400    5.5500    5.5600    5.5700    5.5800    5.5900
    5.6000    5.6100    5.6200    5.6300    5.6400    5.6500    5.6600    5.6700
    5.6800    5.6900    5.7000    5.7100    5.7200    5.7300    5.7400    5.7500
    5.7600    5.7700    5.7800    5.7900    5.8000    5.8100    5.8200    5.8300
    5.8400    5.8500    5.8600    5.8700    5.8800    5.8900    5.9000    5.9100
    5.9200    5.9300    5.9400    5.9500    5.9600    5.9700    5.9800    5.9900
    6.0000    6.0100    6.0200    6.0300    6.0400    6.0500    6.0600    6.0700
    6.0800    6.0900    6.1000    6.1100    6.1200    6.1300    6.1400    6.1500
    6.1600    6.1700    6.1800    6.1900    6.2000    6.2100    6.2200    6.2300
    6.2400    6.2500    6.2600    6.2700    6.2800    6.2900    6.3000    6.3100
    6.3200    6.3300    6.3400    6.3500    6.3600    6.3700    6.3800    6.3900
    6.4000    6.4100    6.4200    6.4300    6.4400    6.4500    6.4600    6.4700
    6.4800    6.4900    6.5000    6.5100    6.5200    6.5300    6.5400    6.5500
    6.5600    6.5700    6.5800    6.5900    6.6000    6.6100    6.6200    6.6300
    6.6400    6.6500    6.6600    6.6700    6.6800    6.6900    6.7000    6.7100
    6.7200    6.7300    6.7400    6.7500    6.7600    6.7700    6.7800    6.7900
    6.8000    6.8100    6.8200    6.8300    6.8400    6.8500    6.8600    6.8700
    6.8800    6.8900    6.9000    6.9100    6.9200    6.9300    6.9400    6.9500
    6.9600    6.9700    6.9800    6.9900    7.0000    7.0100    7.0200    7.0300
    7.0400    7.0500    7.0600    7.0700    7.0800    7.0900    7.1000    7.1100
    7.1200    7.1300    7.1400    7.1500    7.1600    7.1700    7.1800    7.1900
    7.2000    7.2100    7.2200    7.2300    7.2400    7.2500    7.2600    7.2700
    7.2800    7.2900    7.3000    7.3100    7.3200    7.3300    7.3400    7.3500
    7.3600    7.3700    7.3800    7.3900    7.4000    7.4100    7.4200    7.4300
    7.4400    7.4500    7.4600    7.4700    7.4800    7.4900    7.5000    7.5100
    7.5200    7.5300    7.5400    7.5500    7.5600    7.5700    7.5800    7.5900
    7.6000    7.6100    7.6200    7.6300    7.6400    7.6500    7.6600    7.6700
    7.6800    7.6900    7.7000    7.7100    7.7200    7.7300    7.7400    7.7500
    7.7600    7.7700    7.7800    7.7900    7.8000    7.8100    7.8200    7.8300
    7.8400    7.8500    7.8600    7.8700    7.8800    7.8900    7.9000    7.9100
    7.9200    7.9300    7.9400    7.9500    7.9600    7.9700    7.9800    7.9900
    8.0000    8.0100    8.0200    8.0300    8.0400    8.0500    8.0600    8.0700
    8.0800    8.0900    8.1000    8.1100    8.1200    8.1300    8.1400    8.1500
    8.1600    8.1700    8.1800    8.1900    8.2000    8.2100    8.2200    8.2300
    8.2400    8.2500    8.2600    8.2700    8.2800    8.2900    8.3000    8.3100
    8.3200    8.3300    8.3400    8.3500    8.3600    8.3700    8.3800    8.3900
    8.4000    8.4100    8.4200    8.4300    8.4400    8.4500    8.4600    8.4700
    8.4800    8.4900    8.5000    8.5100    8.5200    8.5300    8.5400    8.5500
    8.5600    8.5700    8.5800    8.5900    8.6000    8.6100    8.6200    8.6300
    8.6400    8.6500    8.6600    8.6700    8.6800    8.6900    8.7000    8.7100
    8.7200    8.7300    8.7400    8.7500    8.7600    8.7700    8.7800    8.7900
    8.8000    8.8100    8.8200    8.8300    8.8400    8.8500    8.8600    8.8700
    8.8800    8.8900    8.9000    8.9100    8.9200    8.9300    8.9400    8.9500
    8.9600    8.9700    8.9800    8.9900    9.0000    9.0100    9.0200    9.0300
    9.0400    9.0500    9.0600    9.0700    9.0800    9.0900    9.1000    9.1100
    9.1200    9.1300    9.1400    9.1500    9.1600    9.1700    9.1800    9.1900
    9.2000    9.2100    9.2200    9.2300    9.2400    9.2500    9.2600    9.2700
    9.2800    9.2900    9.3000    9.3100    9.3200    9.3300    9.3400    9.3500
    9.3600    9.3700    9.3800    9.3900    9.4000    9.4100    9.4200    9.4300
    9.4400    9.4500    9.4600    9.4700    9.4800    9.4900    9.5000    9.5100
    9.5200    9.5300    9.5400    9.5500    9.5600    9.5700    9.5800    9.5900
    9.6000    9.6100    9.6200    9.6300    9.6400    9.6500    9.6600    9.6700
    9.6800    9.6900    9.7000    9.7100    9.7200    9.7300    9.7400    9.7500
    9.7600    9.7700    9.7800    9.7900    9.8000    9.8100    9.8200    9.8300
    9.8400    9.8500    9.8600    9.8700    9.8800    9.8900    9.9000    9.9100
    9.9200    9.9300    9.9400    9.9500    9.9600    9.9700    9.9800    9.9900
   10.0000   10.0100   10.0200   10.0300   10.0400   10.0500   10.0600   10.0700
   10.0800   10.0900   10.1000   10.1100   10.1200   10.1300   10.1400   10.1500
   10.1600   10.1700   10.1800   10.1900   10.2000   10.2100   10.2200   10.2300
   10.2400   10.2500   10.2600   10.2700   10.2800   10.2900   10.3000   10.3100
   10.3200   10.3300   10.3400   10.3500   10.3600   10.3700   10.3800   10.3900
   10.4000   10.4100   10.4200   10.4300   10.4400   10.4500   10.4600   10.4700
   10.4800   10.4900   10.5000   10.5100   10.5200   10.5300   10.5400   10.5500
   10.5600   10.5700   10.5800   10.5900   10.6000   10.6100   10.6200   10.6300
   10.6400   10.6500   10.6600   10.6700   10.6800   10.6900   10.7000   10.7100
   10.7200   10.7300   10.7400   10.7500   10.7600   10.7700   10.7800   10.7900
   10.8000   10.8100   10.8200   10.8300   10.8400   10.8500   10.8600   10.8700
   10.8800   10.8900   10.9000   10.9100   10.9200   10.9300   10.9400   10.9500
   10.9600   10.9700   10.9800   10.9900   11.0000   11.0100   11.0200   11.0300
   11.0400   11.0500   11.0600   11.0700   11.0800   11.0900   11.1000   11.1100
   11.1200   11.1300   11.1400   11.1500   11.1600   11.1700   11.1800   11.1900
   11.2000   11.2100   11.2200   11.2300   11.2400   11.2500   11.2600   11.2700
   11.2800   11.2900   11.3000   11.3100   11.3200   11.3300   11.3400   11.3500
   11.3600   11.3700   11.3800   11.3900   11.4000   11.4100   11.4200   11.4300
   11.4400   11.4500   11.4600   11.4700   11.4800   11.4900   11.5000   11.5100
   11.5200   11.5300   11.5400   11.5500   11.5600   11.5700   11.5800   11.5900
   11.6000   11.6100   11.6200   11.6300   11.6400   11.6500   11.6600   11.6700
   11.6800   11.6900   11.7000   11.7100   11.7200   11.7300   11.7400   11.7500
   11.7600   11.7700   11.7800   11.7900   11.8000   11.8100   11.8200   11.8300
   11.8400   11.8500   11.8600   11.8700   11.8800   11.8900   11.9000   11.9100
   11.9200   11.9300   11.9400   11.9500   11.9600   11.9700   11.9800   11.9900
   12.0000   12.0100   12.0200   12.0300   12.0400   12.0500   12.0600   12.0700
   12.0800   12.0900   12.1000   12.1100   12.1200   12.1300   12.1400   12.1500
   12.1600   12.1700   12.1800   12.1900   12.2000   12.2100   12.2200   12.2300
   12.2400   12.2500   12.2600   12.2700   12.2800   12.2900   12.3000   12.3100
   12.3200   12.3300   12.3400   12.3500   12.3600   12.3700   12.3800   12.3900
   12.4000   12.4100   12.4200   12.4300   12.4400   12.4500   12.4600   12.4700
   12.4800   12.4900   12.5000   12.5100   12.5200   12.5300   12.5400   12.5500
   12.5600   12.5700   12.5800   12.5900   12.6000   12.6100   12.6200   12.6300
   12.6400   12.6500   12.6600   12.6700   12.6800   12.6900   12.7000   12.7100
   12.7200   12.7300   12.7400   12.7500   12.7600   12.7700   12.7800   12.7900
   12.8000   12.8100   12.8200   12.8300   12.8400   12.8500   12.8600   12.8700
   12.8800   12.8900   12.9000   12.9100   12.9200   12.9300   12.9400   12.9500
   12.9600   12.9700   12.9800   12.9900   13.0000   13.0100   13.0200   13.0300
   13.0400   13.0500   13.0600   13.0700   13.0800   13.0900   13.1000   13.1100
   13.1200   13.1300   13.1400   13.1500   13.1600   13.1700   13.1800   13.1900
   13.2000   13.2100   13.2200   13.2300   13.2400   13.2500   13.2600   13.2700
   13.2800   13.2900   13.3000   13.3100   13.3200   13.3300   13.3400   13.3500
   13.3600   13.3700   13.3800   13.3900   13.4000   13.4100   13.4200   13.4300
   13.4400   13.4500   13.4600   13.4700   13.4800   13.4900   13.5000   13.5100
   13.5200   13.5300   13.5400   13.5500   13.5600   13.5700   13.5800   13.5900
   13.6000   13.6100   13.6200   13.6300   13.6400   13.6500   13.6600   13.6700
   13.6800   13.6900   13.7000   13.7100   13.7200   13.7300   13.7400   13.7500
   13.7600   13.7700   13.7800   13.7900   13.8000   13.8100   13.8200   13.8300
   13.8400   13.8500   13.8600   13.8700   13.8800   13.8900   13.9000   13.9100
   13.9200   13.9300   13.9400   13.9500   13.9600   13.9700   13.9800   13.9900
   14.0000   14.0100   14.0200   14.0300   14.0400   14.0500   14.0600   14.0700
   14.0800   14.0900   14.1000   14.1100   14.1200   14.1300   14.1400   14.1500
   14.1600   14.1700   14.1800   14.1900   14.2000   14.2100   14.2200   14.2300
   14.2400   14.2500   14.2600   14.2700   14.2800   14.2900   14.3000   14.3100
   14.3200   14.3300   14.3400   14.3500   14.3600   14.3700   14.3800   14.3900
   14.4000   14.4100   14.4200   14.4300   14.4400   14.4500   14.4600   14.4700
   14.4800   14.4900   14.5000   14.5100   14.5200   14.5300   14.5400   14.5500
   14.5600   14.5700   14.5800   14.5900   14.6000   14.6100   14.6200   14.6300
   14.6400   14.6500   14.6600   14.6700   14.6800   14.6900   14.7000   14.7100
   14.7200   14.7300   14.7400   14.7500   14.7600   14.7700   14.7800   14.7900
   14.8000   14.8100   14.8200   14.8300   14.8400   14.8500   14.8600   14.8700
   14.8800   14.8900   14.9000   14.9100   14.9200   14.9300   14.9400   14.9500
   14.9600   14.9700   14.9800   14.9900   15.0000   15.0100   15.0200   15.0300
   15.0400   15.0500   15.0600   15.0700   15.0800   15.0900   15.1000   15.1100
   15.1200   15.1300   15.1400   15.1500   15.1600   15.1700   15.1800   15.1900
   15.2000   15.2100   15.2200   15.2300   15.2400   15.2500   15.2600   15.2700
   15.2800   15.2900   15.3000   15.3100   15.3200   15.3300   15.3400   15.3500
   15.3600   15.3700   15.3800   15.3900   15.4000   15.4100   15.4200   15.4300
   15.4400   15.4500   15.4600   15.4700   15.4800   15.4900   15.5000   15.5100
   15.5200   15.5300
   </PP_R>
   <PP_RAB type="real"  size="1554" columns="8">
    0.0100    0.0100    0.0100    0.0100    0.0100    0.0100    0.0100    0.0100
    0.0100    0.0100    0.0100    0.0100    0.0100    0.0100    0.0100    0.0100
    0.0100    0.0100    0.0100    0.0100    0.0100    0.0100    0.0100    0.0100
    0.0100    0.0100    0.0100    0.0100    0.0100    0.0100    0.0100    0.0100
    0.0100    0.0100    0.0100    0.0100    0.0100    0.0100    0.0100    0.0100
    0.0100    0.0100    0.0100    0.0100    0.0100    0.0100    0.0100    0.0100
    0.0100    0.0100    0.0100    0.0100    0.0100    0.0100    0.0100    0.0100
    0.0100    0.0100    0.0100    0.0100    0.0100    0.0100    0.0100    0.0100
    0.0100    0.0100    0.0100    0.0100    0.0100    0.0100    0.0100    0.0100
    0.0100    0.0100    0.0100    0.0100    0.0100    0.0100    0.0100    0.0100
    0.0100    0.0100    0.0100    0.0100    0.0100    0.0100    0.0100    0.0100
    0.0100    0.0100    0.0100    0.0100    0.0100    0.0100    0.0100    0.0100
    0.0100    0.0100    0.0100    0.0100    0.0100    0.0100    0.0100    0.0100
    0.0100    0.0100    0.0100    0.0100    0.0100    0.0100    0.0100    0.0100
    0.0100    0.0100    0.0100    0.0100    0.0100    0.0100    0.0100    0.0100
    0.0100    0.0100    0.0100    0.0100    0.0100    0.0100    0.0100    0.0100
    0.0100    0.0100    0.0100    0.0100    0.0100    0.0100    0.0100    0.0100
    0.0100    0.0100    0.0100    0.0100    0.0100    0.0100    0.0100    0.0100
    0.0100    0.0100    0.0100    0.0100    0.0100    0.0100    0.0100    0.0100
    0.0100    0.0100    0.0100    0.0100    0.0100    0.0100    0.0100    0.0100
    0.0100    0.0100    0.0100    0.0100    0.0100    0.0100    0.0100    0.0100
    0.0100    0.0100    0.0100    0.0100    0.0100    0.0100    0.0100    0.0100
    0.0100    0.0100    0.0100    0.0100    0.0100    0.0100    0.0100    0.0100
    0.0100    0.0100    0.0100    0.0100    0.0100    0.0100    0.0100    0.0100
    0.0100    0.0100    0.0100    0.0100    0.0100    0.0100    0.0100    0.0100
    0.0100    0.0100    0.0100    0.0100    0.0100    0.0100    0.0100    0.0100
    0.0100    0.0100    0.0100    0.0100    0.0100    0.0100    0.0100    0.0100
    0.0100    0.0100    0.0100    0.0100    0.0100    0.0100    0.0100    0.0100
    0.0100    0.0100    0.0100    0.0100    0.0100    0.0100    0.0100    0.0100
    0.0100    0.0100    0.0100    0.0100    0.0100    0.0100    0.0100    0.0100
    0.0100    0.0100    0.0100    0.0100    0.0100    0.0100    0.0100    0.0100
    0.0100    0.0100    0.0100    0.0100    0.0100    0.0100    0.0100    0.0100
    0.0100    0.0100    0.0100    0.0100    0.0100    0.0100    0.0100    0.0100
    0.0100    0.0100    0.0100    0.0100    0.0100    0.0100    0.0100    0.0100
    0.0100    0.0100    0.0100    0.0100    0.0100    0.0100    0.0100    0.0100
    0.0100    0.0100    0.0100    0.0100    0.0100    0.0100    0.0100    0.0100
    0.0100    0.0100    0.0100    0.0100    0.0100    0.0100    0.0100    0.0100
    0.0100    0.0100    0.0100    0.0100    0.0100    0.0100    0.0100    0.0100
    0.0100    0.0100    0.0100    0.0100    0.0100    0.0100    0.0100    0.0100
    0.0100    0.0100    0.0100    0.0100    0.0100    0.0100    0.0100    0.0100
    0.0100    0.0100    0.0100    0.0100    0.0100    0.0100    0.0100    0.0100
    0.0100    0.0100    0.0100    0.0100    0.0100    0.0100    0.0100    0.0100
    0.0100    0.0100    0.0100    0.0100    0.0100    0.0100    0.0100    0.0100
    0.0100    0.0100    0.0100    0.0100    0.0100    0.0100    0.0100    0.0100
    0.0100    0.0100    0.0100    0.0100    0.0100    0.0100    0.0100    0.0100
    0.0100    0.0100    0.0100    0.0100    0.0100    0.0100    0.0100    0.0100
    0.0100    0.0100    0.0100    0.0100    0.0100    0.0100    0.0100    0.0100
    0.0100    0.0100    0.0100    0.0100    0.0100    0.0100    0.0100    0.0100
    0.0100    0.0100    0.0100    0.0100    0.0100    0.0100    0.0100    0.0100
    0.0100    0.0100    0.0100    0.0100    0.0100    0.0100    0.0100    0.0100
    0.0100    0.0100    0.0100    0.0100    0.0100    0.0100    0.0100    0.0100
    0.0100    0.0100    0.0100    0.0100    0.0100    0.0100    0.0100    0.0100
    0.0100    0.0100    0.0100    0.0100    0.0100    0.0100    0.0100    0.0100
    0.0100    0.0100    0.0100    0.0100    0.0100    0.0100    0.0100    0.0100
    0.0100    0.0100    0.0100    0.0100    0.0100    0.0100    0.0100    0.0100
    0.0100    0.0100    0.0100    0.0100    0.0100    0.0100    0.0100    0.0100
    0.0100    0.0100    0.0100    0.0100    0.0100    0.0100    0.0100    0.0100
    0.0100    0.0100    0.0100    0.0100    0.0100    0.0100    0.0100    0.0100
    0.0100    0.0100    0.0100    0.0100    0.0100    0.0100    0.0100    0.0100
    0.0100    0.0100    0.0100    0.0100    0.0100    0.0100    0.0100    0.0100
    0.0100    0.0100    0.0100    0.0100    0.0100    0.0100    0.0100    0.0100
    0.0100    0.0100    0.0100    0.0100    0.0100    0.0100    0.0100    0.0100
    0.0100    0.0100    0.0100    0.0100    0.0100    0.0100    0.0100    0.0100
    0.0100    0.0100    0.0100    0.0100    0.0100    0.0100    0.0100    0.0100
    0.0100    0.0100    0.0100    0.0100    0.0100    0.0100    0.0100    0.0100
    0.0100    0.0100    0.0100    0.0100    0.0100    0.0100    0.0100    0.0100
    0.0100    0.0100    0.0100    0.0100    0.0100    0.0100    0.0100    0.0100
    0.0100    0.0100    0.0100    0.0100    0.0100    0.0100    0.0100    0.0100
    0.0100    0.0100    0.0100    0.0100    0.0100    0.0100    0.0100    0.0100
    0.0100    0.0100    0.0100    0.0100    0.0100    0.0100    0.0100    0.0100
    0.0100    0.0100    0.0100    0.0100    0.0100    0.0100    0.0100    0.0100
    0.0100    0.0100    0.0100    0.0100    0.0100    0.0100    0.0100    0.0100
    0.0100    0.0100    0.0100    0.0100    0.0100    0.0100    0.0100    0.0100
    0.0100    0.0100    0.0100    0.0100    0.0100    0.0100    0.0100    0.0100
    0.0100    0.0100    0.0100    0.0100    0.0100    0.0100    0.0100    0.0100
    0.0100    0.0100    0.0100    0.0100    0.0100    0.0100    0.0100    0.0100
    0.0100    0.0100    0.0100    0.0100    0.0100    0.0100    0.0100    0.0100
    0.0100    0.0100    0.0100    0.0100    0.0100    0.0100    0.0100    0.0100
    0.0100    0.0100    0.0100    0.0100    0.0100    0.0100    0.0100    0.0100
    0.0100    0.0100    0.0100    0.0100    0.0100    0.0100    0.0100    0.0100
    0.0100    0.0100    0.0100    0.0100    0.0100    0.0100    0.0100    0.0100
    0.0100    0.0100    0.0100    0.0100    0.0100    0.0100    0.0100    0.0100
    0.0100    0.0100    0.0100    0.0100    0.0100    0.0100    0.0100    0.0100
    0.0100    0.0100    0.0100    0.0100    0.0100    0.0100    0.0100    0.0100
    0.0100    0.0100    0.0100    0.0100    0.0100    0.0100    0.0100    0.0100
    0.0100    0.0100    0.0100    0.0100    0.0100    0.0100    0.0100    0.0100
    0.0100    0.0100    0.0100    0.0100    0.0100    0.0100    0.0100    0.0100
    0.0100    0.0100    0.0100    0.0100    0.0100    0.0100    0.0100    0.0100
    0.0100    0.0100    0.0100    0.0100    0.0100    0.0100    0.0100    0.0100
    0.0100    0.0100    0.0100    0.0100    0.0100    0.0100    0.0100    0.0100
    0.0100    0.0100    0.0100    0.0100    0.0100    0.0100    0.0100    0.0100
    0.0100    0.0100    0.0100    0.0100    0.0100    0.0100    0.0100    0.0100
    0.0100    0.0100    0.0100    0.0100    0.0100    0.0100    0.0100    0.0100
    0.0100    0.0100    0.0100    0.0100    0.0100    0.0100    0.0100    0.0100
    0.0100    0.0100    0.0100    0.0100    0.0100    0.0100    0.0100    0.0100
    0.0100    0.0100    0.0100    0.0100    0.0100    0.0100    0.0100    0.0100
    0.0100    0.0100    0.0100    0.0100    0.0100    0.0100    0.0100    0.0100
    0.0100    0.0100    0.0100    0.0100    0.0100    0.0100    0.0100    0.0100
    0.0100    0.0100    0.0100    0.0100    0.0100    0.0100    0.0100    0.0100
    0.0100    0.0100    0.0100    0.0100    0.0100    0.0100    0.0100    0.0100
    0.0100    0.0100    0.0100    0.0100    0.0100    0.0100    0.0100    0.0100
    0.0100    0.0100    0.0100    0.0100    0.0100    0.0100    0.0100    0.0100
    0.0100    0.0100    0.0100    0.0100    0.0100    0.0100    0.0100    0.0100
    0.0100    0.0100    0.0100    0.0100    0.0100    0.0100    0.0100    0.0100
    0.0100    0.0100    0.0100    0.0100    0.0100    0.0100    0.0100    0.0100
    0.0100    0.0100    0.0100    0.0100    0.0100    0.0100    0.0100    0.0100
    0.0100    0.0100    0.0100    0.0100    0.0100    0.0100    0.0100    0.0100
    0.0100    0.0100    0.0100    0.0100    0.0100    0.0100    0.0100    0.0100
    0.0100    0.0100    0.0100    0.0100    0.0100    0.0100    0.0100    0.0100
    0.0100    0.0100    0.0100    0.0100    0.0100    0.0100    0.0100    0.0100
    0.0100    0.0100    0.0100    0.0100    0.0100    0.0100    0.0100    0.0100
    0.0100    0.0100    0.0100    0.0100    0.0100    0.0100    0.0100    0.0100
    0.0100    0.0100    0.0100    0.0100    0.0100    0.0100    0.0100    0.0100
    0.0100    0.0100    0.0100    0.0100    0.0100    0.0100    0.0100    0.0100
    0.0100    0.0100    0.0100    0.0100    0.0100    0.0100    0.0100    0.0100
    0.0100    0.0100    0.0100    0.0100    0.0100    0.0100    0.0100    0.0100
    0.0100    0.0100    0.0100    0.0100    0.0100    0.0100    0.0100    0.0100
    0.0100    0.0100    0.0100    0.0100    0.0100    0.0100    0.0100    0.0100
    0.0100    0.0100    0.0100    0.0100    0.0100    0.0100    0.0100    0.0100
    0.0100    0.0100    0.0100    0.0100    0.0100    0.0100    0.0100    0.0100
    0.0100    0.0100    0.0100    0.0100    0.0100    0.0100    0.0100    0.0100
    0.0100    0.0100    0.0100    0.0100    0.0100    0.0100    0.0100    0.0100
    0.0100    0.0100    0.0100    0.0100    0.0100    0.0100    0.0100    0.0100
    0.0100    0.0100    0.0100    0.0100    0.0100    0.0100    0.0100    0.0100
    0.0100    0.0100    0.0100    0.0100    0.0100    0.0100    0.0100    0.0100
    0.0100    0.0100    0.0100    0.0100    0.0100    0.0100    0.0100    0.0100
    0.0100    0.0100    0.0100    0.0100    0.0100    0.0100    0.0100    0.0100
    0.0100    0.0100    0.0100    0.0100    0.0100    0.0100    0.0100    0.0100
    0.0100    0.0100    0.0100    0.0100    0.0100    0.0100    0.0100    0.0100
    0.0100    0.0100    0.0100    0.0100    0.0100    0.0100    0.0100    0.0100
    0.0100    0.0100    0.0100    0.0100    0.0100    0.0100    0.0100    0.0100
    0.0100    0.0100    0.0100    0.0100    0.0100    0.0100    0.0100    0.0100
    0.0100    0.0100    0.0100    0.0100    0.0100    0.0100    0.0100    0.0100
    0.0100    0.0100    0.0100    0.0100    0.0100    0.0100    0.0100    0.0100
    0.0100    0.0100    0.0100    0.0100    0.0100    0.0100    0.0100    0.0100
    0.0100    0.0100    0.0100    0.0100    0.0100    0.0100    0.0100    0.0100
    0.0100    0.0100    0.0100    0.0100    0.0100    0.0100    0.0100    0.0100
    0.0100    0.0100    0.0100    0.0100    0.0100    0.0100    0.0100    0.0100
    0.0100    0.0100    0.0100    0.0100    0.0100    0.0100    0.0100    0.0100
    0.0100    0.0100    0.0100    0.0100    0.0100    0.0100    0.0100    0.0100
    0.0100    0.0100    0.0100    0.0100    0.0100    0.0100    0.0100    0.0100
    0.0100    0.0100    0.0100    0.0100    0.0100    0.0100    0.0100    0.0100
    0.0100    0.0100    0.0100    0.0100    0.0100    0.0100    0.0100    0.0100
    0.0100    0.0100    0.0100    0.0100    0.0100    0.0100    0.0100    0.0100
    0.0100    0.0100    0.0100    0.0100    0.0100    0.0100    0.0100    0.0100
    0.0100    0.0100    0.0100    0.0100    0.0100    0.0100    0.0100    0.0100
    0.0100    0.0100    0.0100    0.0100    0.0100    0.0100    0.0100    0.0100
    0.0100    0.0100    0.0100    0.0100    0.0100    0.0100    0.0100    0.0100
    0.0100    0.0100    0.0100    0.0100    0.0100    0.0100    0.0100    0.0100
    0.0100    0.0100    0.0100    0.0100    0.0100    0.0100    0.0100    0.0100
    0.0100    0.0100    0.0100    0.0100    0.0100    0.0100    0.0100    0.0100
    0.0100    0.0100    0.0100    0.0100    0.0100    0.0100    0.0100    0.0100
    0.0100    0.0100    0.0100    0.0100    0.0100    0.0100    0.0100    0.0100
    0.0100    0.0100    0.0100    0.0100    0.0100    0.0100    0.0100    0.0100
    0.0100    0.0100    0.0100    0.0100    0.0100    0.0100    0.0100    0.0100
    0.0100    0.0100    0.0100    0.0100    0.0100    0.0100    0.0100    0.0100
    0.0100    0.0100    0.0100    0.0100    0.0100    0.0100    0.0100    0.0100
    0.0100    0.0100    0.0100    0.0100    0.0100    0.0100    0.0100    0.0100
    0.0100    0.0100    0.0100    0.0100    0.0100    0.0100    0.0100    0.0100
    0.0100    0.0100    0.0100    0.0100    0.0100    0.0100    0.0100    0.0100
    0.0100    0.0100    0.0100    0.0100    0.0100    0.0100    0.0100    0.0100
    0.0100    0.0100    0.0100    0.0100    0.0100    0.0100    0.0100    0.0100
    0.0100    0.0100    0.0100    0.0100    0.0100    0.0100    0.0100    0.0100
    0.0100    0.0100    0.0100    0.0100    0.0100    0.0100    0.0100    0.0100
    0.0100    0.0100    0.0100    0.0100    0.0100    0.0100    0.0100    0.0100
    0.0100    0.0100    0.0100    0.0100    0.0100    0.0100    0.0100    0.0100
    0.0100    0.0100    0.0100    0.0100    0.0100    0.0100    0.0100    0.0100
    0.0100    0.0100    0.0100    0.0100    0.0100    0.0100    0.0100    0.0100
    0.0100    0.0100    0.0100    0.0100    0.0100    0.0100    0.0100    0.0100
    0.0100    0.0100    0.0100    0.0100    0.0100    0.0100    0.0100    0.0100
    0.0100    0.0100    0.0100    0.0100    0.0100    0.0100    0.0100    0.0100
    0.0100    0.0100    0.0100    0.0100    0.0100    0.0100    0.0100    0.0100
    0.0100    0.0100    0.0100    0.0100    0.0100    0.0100    0.0100    0.0100
    0.0100    0.0100    0.0100    0.0100    0.0100    0.0100    0.0100    0.0100
    0.0100    0.0100    0.0100    0.0100    0.0100    0.0100    0.0100    0.0100
    0.0100    0.0100    0.0100    0.0100    0.0100    0.0100    0.0100    0.0100
    0.0100    0.0100    0.0100    0.0100    0.0100    0.0100    0.0100    0.0100
    0.0100    0.0100    0.0100    0.0100    0.0100    0.0100    0.0100    0.0100
    0.0100    0.0100    0.0100    0.0100    0.0100    0.0100    0.0100    0.0100
    0.0100    0.0100    0.0100    0.0100    0.0100    0.0100    0.0100    0.0100
    0.0100    0.0100    0.0100    0.0100    0.0100    0.0100    0.0100    0.0100
    0.0100    0.0100    0.0100    0.0100    0.0100    0.0100    0.0100    0.0100
    0.0100    0.0100    0.0100    0.0100    0.0100    0.0100    0.0100    0.0100
    0.0100    0.0100    0.0100    0.0100    0.0100    0.0100    0.0100    0.0100
    0.0100    0.0100    0.0100    0.0100    0.0100    0.0100    0.0100    0.0100
    0.0100    0.0100    0.0100    0.0100    0.0100    0.0100    0.0100    0.0100
    0.0100    0.0100    0.0100    0.0100    0.0100    0.0100    0.0100    0.0100
    0.0100    0.0100    0.0100    0.0100    0.0100    0.0100    0.0100    0.0100
    0.0100    0.0100    0.0100    0.0100    0.0100    0.0100    0.0100    0.0100
    0.0100    0.0100    0.0100    0.0100    0.0100    0.0100    0.0100    0.0100
    0.0100    0.0100    0.0100    0.0100    0.0100    0.0100    0.0100    0.0100
    0.0100    0.0100    0.0100    0.0100    0.0100    0.0100    0.0100    0.0100
    0.0100    0.0100    0.0100    0.0100    0.0100    0.0100    0.0100    0.0100
    0.0100    0.0100    0.0100    0.0100    0.0100    0.0100    0.0100    0.0100
    0.0100    0.0100
   </PP_RAB>
 </PP_MESH>
  <PP_LOCAL type="real"  size="1554" columns="4">
   -3.8559538054E+01   -3.8557897678E+01   -3.8552974510E+01   -3.8544767266E+01
   -3.8533272996E+01   -3.8518487568E+01   -3.8500405659E+01   -3.8479020765E+01
   -3.8454325212E+01   -3.8426310174E+01   -3.8394965686E+01   -3.8360280654E+01
   -3.8322242856E+01   -3.8280838953E+01   -3.8236054497E+01   -3.8187873955E+01
   -3.8136280757E+01   -3.8081257364E+01   -3.8022785371E+01   -3.7960845638E+01
   -3.7895418474E+01   -3.7826483853E+01   -3.7754021689E+01   -3.7678012163E+01
   -3.7598436105E+01   -3.7515275441E+01   -3.7428513705E+01   -3.7338136606E+01
   -3.7244132659E+01   -3.7146493869E+01   -3.7045216446E+01   -3.6940301551E+01
   -3.6831756028E+01   -3.6719593104E+01   -3.6603833017E+01   -3.6484503506E+01
   -3.6361640144E+01   -3.6235286426E+01   -3.6105493580E+01   -3.5972320047E+01
   -3.5835830580E+01   -3.5696094977E+01   -3.5553186409E+01   -3.5407179425E+01
   -3.5258147655E+01   -3.5106161346E+01   -3.4951284816E+01   -3.4793573990E+01
   -3.4633074126E+01   -3.4469817879E+01   -3.4303823786E+01   -3.4135095248E+01
   -3.3963620009E+01   -3.3789370159E+01   -3.3612302584E+01   -3.3432359842E+01
   -3.3249471404E+01   -3.3063555225E+01   -3.2874519580E+01   -3.2682265092E+01
   -3.2486686772E+01   -3.2287675732E+01   -3.2085120063E+01   -3.1878904091E+01
   -3.1668905041E+01   -3.1454985984E+01   -3.1236984025E+01   -3.1014693012E+01
   -3.0787840977E+01   -3.0556064348E+01   -3.0318884891E+01   -3.0075933321E+01
   -2.9833084533E+01   -2.9593363856E+01   -2.9356978254E+01   -2.9124247270E+01
   -2.8895488717E+01   -2.8670926973E+01   -2.8450614326E+01   -2.8234373855E+01
   -2.8021773987E+01   -2.7812142738E+01   -2.7604623296E+01   -2.7398263684E+01
   -2.7192124580E+01   -2.6985384714E+01   -2.6777424622E+01   -2.6567876392E+01
   -2.6356598668E+01   -2.6143593251E+01   -2.5929019011E+01   -2.5713162173E+01
   -2.5496394328E+01   -2.5279132617E+01   -2.5061805725E+01   -2.4844827226E+01
   -2.4628576353E+01   -2.4413385553E+01   -2.4199533908E+01   -2.3987245459E+01
   -2.3776691538E+01   -2.3567996194E+01   -2.3361243778E+01   -2.3156487735E+01
   -2.2953759646E+01   -2.2753077702E+01   -2.2554453943E+01   -2.2357899862E+01
   -2.2163430228E+01   -2.1971065176E+01   -2.1780830824E+01   -2.1592758714E+01
   -2.1406884439E+01   -2.1223245759E+01   -2.1041880482E+01   -2.0862824338E+01
   -2.0686108995E+01   -2.0511760373E+01   -2.0339797340E+01   -2.0170230919E+01
   -2.0003064060E+01   -1.9838292095E+01   -1.9675903931E+01   -1.9515884078E+01
   -1.9358215592E+01   -1.9202884032E+01   -1.9049882570E+01   -1.8899218510E+01
   -1.8750921618E+01   -1.8605054809E+01   -1.8461732014E+01   -1.8320828307E+01
   -1.8182057782E+01   -1.8045370383E+01   -1.7910719809E+01   -1.7778061290E+01
   -1.7647350858E+01   -1.7518546837E+01   -1.7391607769E+01   -1.7266493786E+01
   -1.7143165714E+01   -1.7021586012E+01   -1.6901717796E+01   -1.6783525308E+01
   -1.6666973753E+01   -1.6552029282E+01   -1.6438658955E+01   -1.6326830713E+01
   -1.6216513348E+01   -1.6107676477E+01   -1.6000290508E+01   -1.5894326624E+01
   -1.5789756748E+01   -1.5686553524E+01   -1.5584690293E+01   -1.5484141074E+01
   -1.5384880538E+01   -1.5286883998E+01   -1.5190127386E+01   -1.5094587237E+01
   -1.5000240683E+01   -1.4907065430E+01   -1.4815039753E+01   -1.4724142488E+01
   -1.4634353109E+01   -1.4545650483E+01   -1.4458017907E+01   -1.4371433178E+01
   -1.4285879566E+01   -1.4201338456E+01   -1.4117792178E+01   -1.4035223450E+01
   -1.3953615389E+01   -1.3872951494E+01   -1.3793215629E+01   -1.3714392003E+01
   -1.3636465154E+01   -1.3559419932E+01   -1.3483241485E+01   -1.3407915253E+01
   -1.3333426950E+01   -1.3259762568E+01   -1.3186908364E+01   -1.3114850865E+01
   -1.3043576864E+01   -1.2973073425E+01   -1.2903327885E+01   -1.2834327855E+01
   -1.2766061227E+01   -1.2698516175E+01   -1.2631681159E+01   -1.2565544923E+01
   -1.2500096499E+01   -1.2435325198E+01   -1.2371220610E+01   -1.2307772593E+01
   -1.2244971260E+01   -1.2182806968E+01   -1.2121270297E+01   -1.2060352048E+01
   -1.2000043112E+01   -1.1940334681E+01   -1.1881219658E+01   -1.1822691188E+01
   -1.1764736482E+01   -1.1707347109E+01   -1.1650514823E+01   -1.1594231564E+01
   -1.1538489420E+01   -1.1483280632E+01   -1.1428597589E+01   -1.1374432824E+01
   -1.1320779008E+01   -1.1267628953E+01   -1.1214975602E+01   -1.1162812030E+01
   -1.1111131441E+01   -1.1059927161E+01   -1.1009192641E+01   -1.0958921451E+01
   -1.0909107274E+01   -1.0859743913E+01   -1.0810825276E+01   -1.0762345386E+01
   -1.0714298367E+01   -1.0666678452E+01   -1.0619479972E+01   -1.0572697360E+01
   -1.0526325146E+01   -1.0480357954E+01   -1.0434790503E+01   -1.0389617603E+01
   -1.0344834152E+01   -1.0300435138E+01   -1.0256415631E+01   -1.0212770787E+01
   -1.0169495845E+01   -1.0126586122E+01   -1.0084037014E+01   -1.0041843987E+01
   -1.0000002586E+01   -9.9585084523E+00   -9.9173572813E+00   -9.8765448351E+00
   -9.8360669469E+00   -9.7959195181E+00   -9.7560985169E+00   -9.7165999771E+00
   -9.6774199962E+00   -9.6385547343E+00   -9.6000004131E+00   -9.5617533142E+00
   -9.5238097782E+00   -9.4861662037E+00   -9.4488190461E+00   -9.4117648164E+00
   -9.3750000805E+00   -9.3385214577E+00   -9.3023256201E+00   -9.2664092913E+00
   -9.2307692456E+00   -9.1954023067E+00   -9.1603053470E+00   -9.1254752862E+00
   -9.0909090911E+00   -9.0566037736E+00   -9.0225563910E+00   -8.9887640449E+00
   -8.9552238806E+00   -8.9219330855E+00   -8.8888888889E+00   -8.8560885609E+00
   -8.8235294118E+00   -8.7912087912E+00   -8.7591240876E+00   -8.7272727273E+00
   -8.6956521739E+00   -8.6642599278E+00   -8.6330935252E+00   -8.6021505376E+00
   -8.5714285714E+00   -8.5409252669E+00   -8.5106382979E+00   -8.4805653710E+00
   -8.4507042254E+00   -8.4210526316E+00   -8.3916083916E+00   -8.3623693380E+00
   -8.3333333333E+00   -8.3044982699E+00   -8.2758620690E+00   -8.2474226804E+00
   -8.2191780822E+00   -8.1911262799E+00   -8.1632653061E+00   -8.1355932203E+00
   -8.1081081081E+00   -8.0808080808E+00   -8.0536912752E+00   -8.0267558528E+00
   -8.0000000000E+00   -7.9734219269E+00   -7.9470198675E+00   -7.9207920792E+00
   -7.8947368421E+00   -7.8688524590E+00   -7.8431372549E+00   -7.8175895765E+00
   -7.7922077922E+00   -7.7669902913E+00   -7.7419354839E+00   -7.7170418006E+00
   -7.6923076923E+00   -7.6677316294E+00   -7.6433121019E+00   -7.6190476190E+00
   -7.5949367089E+00   -7.5709779180E+00   -7.5471698113E+00   -7.5235109718E+00
   -7.5000000000E+00   -7.4766355140E+00   -7.4534161491E+00   -7.4303405573E+00
   -7.4074074074E+00   -7.3846153846E+00   -7.3619631902E+00   -7.3394495413E+00
   -7.3170731707E+00   -7.2948328267E+00   -7.2727272727E+00   -7.2507552870E+00
   -7.2289156627E+00   -7.2072072072E+00   -7.1856287425E+00   -7.1641791045E+00
   -7.1428571429E+00   -7.1216617211E+00   -7.1005917160E+00   -7.0796460177E+00
   -7.0588235294E+00   -7.0381231672E+00   -7.0175438596E+00   -6.9970845481E+00
   -6.9767441860E+00   -6.9565217391E+00   -6.9364161850E+00   -6.9164265130E+00
   -6.8965517241E+00   -6.8767908309E+00   -6.8571428571E+00   -6.8376068376E+00
   -6.8181818182E+00   -6.7988668555E+00   -6.7796610169E+00   -6.7605633803E+00
   -6.7415730337E+00   -6.7226890756E+00   -6.7039106145E+00   -6.6852367688E+00
   -6.6666666667E+00   -6.6481994460E+00   -6.6298342541E+00   -6.6115702479E+00
   -6.5934065934E+00   -6.5753424658E+00   -6.5573770492E+00   -6.5395095368E+00
   -6.5217391304E+00   -6.5040650407E+00   -6.4864864865E+00   -6.4690026954E+00
   -6.4516129032E+00   -6.4343163539E+00   -6.4171122995E+00   -6.4000000000E+00
   -6.3829787234E+00   -6.3660477454E+00   -6.3492063492E+00   -6.3324538259E+00
   -6.3157894737E+00   -6.2992125984E+00   -6.2827225131E+00   -6.2663185379E+00
   -6.2500000000E+00   -6.2337662338E+00   -6.2176165803E+00   -6.2015503876E+00
   -6.1855670103E+00   -6.1696658098E+00   -6.1538461538E+00   -6.1381074169E+00
   -6.1224489796E+00   -6.1068702290E+00   -6.0913705584E+00   -6.0759493671E+00
   -6.0606060606E+00   -6.0453400504E+00   -6.0301507538E+00   -6.0150375940E+00
   -6.0000000000E+00   -5.9850374065E+00   -5.9701492537E+00   -5.9553349876E+00
   -5.9405940594E+00   -5.9259259259E+00   -5.9113300493E+00   -5.8968058968E+00
   -5.8823529412E+00   -5.8679706601E+00   -5.8536585366E+00   -5.8394160584E+00
   -5.8252427184E+00   -5.8111380145E+00   -5.7971014493E+00   -5.7831325301E+00
   -5.7692307692E+00   -5.7553956835E+00   -5.7416267943E+00   -5.7279236277E+00
   -5.7142857143E+00   -5.7007125891E+00   -5.6872037915E+00   -5.6737588652E+00
   -5.6603773585E+00   -5.6470588235E+00   -5.6338028169E+00   -5.6206088993E+00
   -5.6074766355E+00   -5.5944055944E+00   -5.5813953488E+00   -5.5684454756E+00
   -5.5555555556E+00   -5.5427251732E+00   -5.5299539171E+00   -5.5172413793E+00
   -5.5045871560E+00   -5.4919908467E+00   -5.4794520548E+00   -5.4669703872E+00
   -5.4545454545E+00   -5.4421768707E+00   -5.4298642534E+00   -5.4176072235E+00
   -5.4054054054E+00   -5.3932584270E+00   -5.3811659193E+00   -5.3691275168E+00
   -5.3571428571E+00   -5.3452115813E+00   -5.3333333333E+00   -5.3215077605E+00
   -5.3097345133E+00   -5.2980132450E+00   -5.2863436123E+00   -5.2747252747E+00
   -5.2631578947E+00   -5.2516411379E+00   -5.2401746725E+00   -5.2287581699E+00
   -5.2173913043E+00   -5.2060737527E+00   -5.1948051948E+00   -5.1835853132E+00
   -5.1724137931E+00   -5.1612903226E+00   -5.1502145923E+00   -5.1391862955E+00
   -5.1282051282E+00   -5.1172707889E+00   -5.1063829787E+00   -5.0955414013E+00
   -5.0847457627E+00   -5.0739957717E+00   -5.0632911392E+00   -5.0526315789E+00
   -5.0420168067E+00   -5.0314465409E+00   -5.0209205021E+00   -5.0104384134E+00
   -5.0000000000E+00   -4.9896049896E+00   -4.9792531120E+00   -4.9689440994E+00
   -4.9586776860E+00   -4.9484536082E+00   -4.9382716049E+00   -4.9281314168E+00
   -4.9180327869E+00   -4.9079754601E+00   -4.8979591837E+00   -4.8879837067E+00
   -4.8780487805E+00   -4.8681541582E+00   -4.8582995951E+00   -4.8484848485E+00
   -4.8387096774E+00   -4.8289738431E+00   -4.8192771084E+00   -4.8096192385E+00
   -4.8000000000E+00   -4.7904191617E+00   -4.7808764940E+00   -4.7713717694E+00
   -4.7619047619E+00   -4.7524752475E+00   -4.7430830040E+00   -4.7337278107E+00
   -4.7244094488E+00   -4.7151277014E+00   -4.7058823529E+00   -4.6966731898E+00
   -4.6875000000E+00   -4.6783625731E+00   -4.6692607004E+00   -4.6601941748E+00
   -4.6511627907E+00   -4.6421663443E+00   -4.6332046332E+00   -4.6242774566E+00
   -4.6153846154E+00   -4.6065259117E+00   -4.5977011494E+00   -4.5889101338E+00
   -4.5801526718E+00   -4.5714285714E+00   -4.5627376426E+00   -4.5540796964E+00
   -4.5454545455E+00   -4.5368620038E+00   -4.5283018868E+00   -4.5197740113E+00
   -4.5112781955E+00   -4.5028142589E+00   -4.4943820225E+00   -4.4859813084E+00
   -4.4776119403E+00   -4.4692737430E+00   -4.4609665428E+00   -4.4526901670E+00
   -4.4444444444E+00   -4.4362292052E+00   -4.4280442804E+00   -4.4198895028E+00
   -4.4117647059E+00   -4.4036697248E+00   -4.3956043956E+00   -4.3875685558E+00
   -4.3795620438E+00   -4.3715846995E+00   -4.3636363636E+00   -4.3557168784E+00
   -4.3478260870E+00   -4.3399638336E+00   -4.3321299639E+00   -4.3243243243E+00
   -4.3165467626E+00   -4.3087971275E+00   -4.3010752688E+00   -4.2933810376E+00
   -4.2857142857E+00   -4.2780748663E+00   -4.2704626335E+00   -4.2628774423E+00
   -4.2553191489E+00   -4.2477876106E+00   -4.2402826855E+00   -4.2328042328E+00
   -4.2253521127E+00   -4.2179261863E+00   -4.2105263158E+00   -4.2031523643E+00
   -4.1958041958E+00   -4.1884816754E+00   -4.1811846690E+00   -4.1739130435E+00
   -4.1666666667E+00   -4.1594454073E+00   -4.1522491349E+00   -4.1450777202E+00
   -4.1379310345E+00   -4.1308089501E+00   -4.1237113402E+00   -4.1166380789E+00
   -4.1095890411E+00   -4.1025641026E+00   -4.0955631399E+00   -4.0885860307E+00
   -4.0816326531E+00   -4.0747028862E+00   -4.0677966102E+00   -4.0609137056E+00
   -4.0540540541E+00   -4.0472175379E+00   -4.0404040404E+00   -4.0336134454E+00
   -4.0268456376E+00   -4.0201005025E+00   -4.0133779264E+00   -4.0066777963E+00
   -4.0000000000E+00   -3.9933444260E+00   -3.9867109635E+00   -3.9800995025E+00
   -3.9735099338E+00   -3.9669421488E+00   -3.9603960396E+00   -3.9538714992E+00
   -3.9473684211E+00   -3.9408866995E+00   -3.9344262295E+00   -3.9279869067E+00
   -3.9215686275E+00   -3.9151712887E+00   -3.9087947883E+00   -3.9024390244E+00
   -3.8961038961E+00   -3.8897893031E+00   -3.8834951456E+00   -3.8772213247E+00
   -3.8709677419E+00   -3.8647342995E+00   -3.8585209003E+00   -3.8523274478E+00
   -3.8461538462E+00   -3.8400000000E+00   -3.8338658147E+00   -3.8277511962E+00
   -3.8216560510E+00   -3.8155802862E+00   -3.8095238095E+00   -3.8034865293E+00
   -3.7974683544E+00   -3.7914691943E+00   -3.7854889590E+00   -3.7795275591E+00
   -3.7735849057E+00   -3.7676609105E+00   -3.7617554859E+00   -3.7558685446E+00
   -3.7500000000E+00   -3.7441497660E+00   -3.7383177570E+00   -3.7325038880E+00
   -3.7267080745E+00   -3.7209302326E+00   -3.7151702786E+00   -3.7094281298E+00
   -3.7037037037E+00   -3.6979969183E+00   -3.6923076923E+00   -3.6866359447E+00
   -3.6809815951E+00   -3.6753445636E+00   -3.6697247706E+00   -3.6641221374E+00
   -3.6585365854E+00   -3.6529680365E+00   -3.6474164134E+00   -3.6418816388E+00
   -3.6363636364E+00   -3.6308623298E+00   -3.6253776435E+00   -3.6199095023E+00
   -3.6144578313E+00   -3.6090225564E+00   -3.6036036036E+00   -3.5982008996E+00
   -3.5928143713E+00   -3.5874439462E+00   -3.5820895522E+00   -3.5767511177E+00
   -3.5714285714E+00   -3.5661218425E+00   -3.5608308605E+00   -3.5555555556E+00
   -3.5502958580E+00   -3.5450516987E+00   -3.5398230088E+00   -3.5346097202E+00
   -3.5294117647E+00   -3.5242290749E+00   -3.5190615836E+00   -3.5139092240E+00
   -3.5087719298E+00   -3.5036496350E+00   -3.4985422741E+00   -3.4934497817E+00
   -3.4883720930E+00   -3.4833091437E+00   -3.4782608696E+00   -3.4732272069E+00
   -3.4682080925E+00   -3.4632034632E+00   -3.4582132565E+00   -3.4532374101E+00
   -3.4482758621E+00   -3.4433285509E+00   -3.4383954155E+00   -3.4334763948E+00
   -3.4285714286E+00   -3.4236804565E+00   -3.4188034188E+00   -3.4139402560E+00
   -3.4090909091E+00   -3.4042553191E+00   -3.3994334278E+00   -3.3946251768E+00
   -3.3898305085E+00   -3.3850493653E+00   -3.3802816901E+00   -3.3755274262E+00
   -3.3707865169E+00   -3.3660589060E+00   -3.3613445378E+00   -3.3566433566E+00
   -3.3519553073E+00   -3.3472803347E+00   -3.3426183844E+00   -3.3379694019E+00
   -3.3333333333E+00   -3.3287101248E+00   -3.3240997230E+00   -3.3195020747E+00
   -3.3149171271E+00   -3.3103448276E+00   -3.3057851240E+00   -3.3012379642E+00
   -3.2967032967E+00   -3.2921810700E+00   -3.2876712329E+00   -3.2831737346E+00
   -3.2786885246E+00   -3.2742155525E+00   -3.2697547684E+00   -3.2653061224E+00
   -3.2608695652E+00   -3.2564450475E+00   -3.2520325203E+00   -3.2476319350E+00
   -3.2432432432E+00   -3.2388663968E+00   -3.2345013477E+00   -3.2301480485E+00
   -3.2258064516E+00   -3.2214765101E+00   -3.2171581769E+00   -3.2128514056E+00
   -3.2085561497E+00   -3.2042723632E+00   -3.2000000000E+00   -3.1957390146E+00
   -3.1914893617E+00   -3.1872509960E+00   -3.1830238727E+00   -3.1788079470E+00
   -3.1746031746E+00   -3.1704095112E+00   -3.1662269129E+00   -3.1620553360E+00
   -3.1578947368E+00   -3.1537450723E+00   -3.1496062992E+00   -3.1454783748E+00
   -3.1413612565E+00   -3.1372549020E+00   -3.1331592689E+00   -3.1290743155E+00
   -3.1250000000E+00   -3.1209362809E+00   -3.1168831169E+00   -3.1128404669E+00
   -3.1088082902E+00   -3.1047865459E+00   -3.1007751938E+00   -3.0967741935E+00
   -3.0927835052E+00   -3.0888030888E+00   -3.0848329049E+00   -3.0808729140E+00
   -3.0769230769E+00   -3.0729833547E+00   -3.0690537084E+00   -3.0651340996E+00
   -3.0612244898E+00   -3.0573248408E+00   -3.0534351145E+00   -3.0495552732E+00
   -3.0456852792E+00   -3.0418250951E+00   -3.0379746835E+00   -3.0341340076E+00
   -3.0303030303E+00   -3.0264817150E+00   -3.0226700252E+00   -3.0188679245E+00
   -3.0150753769E+00   -3.0112923463E+00   -3.0075187970E+00   -3.0037546934E+00
   -3.0000000000E+00   -2.9962546816E+00   -2.9925187032E+00   -2.9887920299E+00
   -2.9850746269E+00   -2.9813664596E+00   -2.9776674938E+00   -2.9739776952E+00
   -2.9702970297E+00   -2.9666254635E+00   -2.9629629630E+00   -2.9593094945E+00
   -2.9556650246E+00   -2.9520295203E+00   -2.9484029484E+00   -2.9447852761E+00
   -2.9411764706E+00   -2.9375764994E+00   -2.9339853301E+00   -2.9304029304E+00
   -2.9268292683E+00   -2.9232643118E+00   -2.9197080292E+00   -2.9161603888E+00
   -2.9126213592E+00   -2.9090909091E+00   -2.9055690073E+00   -2.9020556227E+00
   -2.8985507246E+00   -2.8950542823E+00   -2.8915662651E+00   -2.8880866426E+00
   -2.8846153846E+00   -2.8811524610E+00   -2.8776978417E+00   -2.8742514970E+00
   -2.8708133971E+00   -2.8673835125E+00   -2.8639618138E+00   -2.8605482718E+00
   -2.8571428571E+00   -2.8537455410E+00   -2.8503562945E+00   -2.8469750890E+00
   -2.8436018957E+00   -2.8402366864E+00   -2.8368794326E+00   -2.8335301063E+00
   -2.8301886792E+00   -2.8268551237E+00   -2.8235294118E+00   -2.8202115159E+00
   -2.8169014085E+00   -2.8135990621E+00   -2.8103044496E+00   -2.8070175439E+00
   -2.8037383178E+00   -2.8004667445E+00   -2.7972027972E+00   -2.7939464494E+00
   -2.7906976744E+00   -2.7874564460E+00   -2.7842227378E+00   -2.7809965238E+00
   -2.7777777778E+00   -2.7745664740E+00   -2.7713625866E+00   -2.7681660900E+00
   -2.7649769585E+00   -2.7617951669E+00   -2.7586206897E+00   -2.7554535017E+00
   -2.7522935780E+00   -2.7491408935E+00   -2.7459954233E+00   -2.7428571429E+00
   -2.7397260274E+00   -2.7366020525E+00   -2.7334851936E+00   -2.7303754266E+00
   -2.7272727273E+00   -2.7241770715E+00   -2.7210884354E+00   -2.7180067950E+00
   -2.7149321267E+00   -2.7118644068E+00   -2.7088036117E+00   -2.7057497182E+00
   -2.7027027027E+00   -2.6996625422E+00   -2.6966292135E+00   -2.6936026936E+00
   -2.6905829596E+00   -2.6875699888E+00   -2.6845637584E+00   -2.6815642458E+00
   -2.6785714286E+00   -2.6755852843E+00   -2.6726057906E+00   -2.6696329255E+00
   -2.6666666667E+00   -2.6637069922E+00   -2.6607538803E+00   -2.6578073090E+00
   -2.6548672566E+00   -2.6519337017E+00   -2.6490066225E+00   -2.6460859978E+00
   -2.6431718062E+00   -2.6402640264E+00   -2.6373626374E+00   -2.6344676180E+00
   -2.6315789474E+00   -2.6286966046E+00   -2.6258205689E+00   -2.6229508197E+00
   -2.6200873362E+00   -2.6172300981E+00   -2.6143790850E+00   -2.6115342764E+00
   -2.6086956522E+00   -2.6058631922E+00   -2.6030368764E+00   -2.6002166847E+00
   -2.5974025974E+00   -2.5945945946E+00   -2.5917926566E+00   -2.5889967638E+00
   -2.5862068966E+00   -2.5834230355E+00   -2.5806451613E+00   -2.5778732546E+00
   -2.5751072961E+00   -2.5723472669E+00   -2.5695931478E+00   -2.5668449198E+00
   -2.5641025641E+00   -2.5613660619E+00   -2.5586353945E+00   -2.5559105431E+00
   -2.5531914894E+00   -2.5504782147E+00   -2.5477707006E+00   -2.5450689290E+00
   -2.5423728814E+00   -2.5396825397E+00   -2.5369978858E+00   -2.5343189018E+00
   -2.5316455696E+00   -2.5289778714E+00   -2.5263157895E+00   -2.5236593060E+00
   -2.5210084034E+00   -2.5183630640E+00   -2.5157232704E+00   -2.5130890052E+00
   -2.5104602510E+00   -2.5078369906E+00   -2.5052192067E+00   -2.5026068822E+00
   -2.5000000000E+00   -2.4973985432E+00   -2.4948024948E+00   -2.4922118380E+00
   -2.4896265560E+00   -2.4870466321E+00   -2.4844720497E+00   -2.4819027921E+00
   -2.4793388430E+00   -2.4767801858E+00   -2.4742268041E+00   -2.4716786818E+00
   -2.4691358025E+00   -2.4665981501E+00   -2.4640657084E+00   -2.4615384615E+00
   -2.4590163934E+00   -2.4564994882E+00   -2.4539877301E+00   -2.4514811032E+00
   -2.4489795918E+00   -2.4464831804E+00   -2.4439918534E+00   -2.4415055951E+00
   -2.4390243902E+00   -2.4365482234E+00   -2.4340770791E+00   -2.4316109422E+00
   -2.4291497976E+00   -2.4266936299E+00   -2.4242424242E+00   -2.4217961655E+00
   -2.4193548387E+00   -2.4169184290E+00   -2.4144869215E+00   -2.4120603015E+00
   -2.4096385542E+00   -2.4072216650E+00   -2.4048096192E+00   -2.4024024024E+00
   -2.4000000000E+00   -2.3976023976E+00   -2.3952095808E+00   -2.3928215354E+00
   -2.3904382470E+00   -2.3880597015E+00   -2.3856858847E+00   -2.3833167825E+00
   -2.3809523810E+00   -2.3785926660E+00   -2.3762376238E+00   -2.3738872404E+00
   -2.3715415020E+00   -2.3692003949E+00   -2.3668639053E+00   -2.3645320197E+00
   -2.3622047244E+00   -2.3598820059E+00   -2.3575638507E+00   -2.3552502453E+00
   -2.3529411765E+00   -2.3506366308E+00   -2.3483365949E+00   -2.3460410557E+00
   -2.3437500000E+00   -2.3414634146E+00   -2.3391812865E+00   -2.3369036027E+00
   -2.3346303502E+00   -2.3323615160E+00   -2.3300970874E+00   -2.3278370514E+00
   -2.3255813953E+00   -2.3233301065E+00   -2.3210831721E+00   -2.3188405797E+00
   -2.3166023166E+00   -2.3143683703E+00   -2.3121387283E+00   -2.3099133782E+00
   -2.3076923077E+00   -2.3054755043E+00   -2.3032629559E+00   -2.3010546500E+00
   -2.2988505747E+00   -2.2966507177E+00   -2.2944550669E+00   -2.2922636103E+00
   -2.2900763359E+00   -2.2878932316E+00   -2.2857142857E+00   -2.2835394862E+00
   -2.2813688213E+00   -2.2792022792E+00   -2.2770398482E+00   -2.2748815166E+00
   -2.2727272727E+00   -2.2705771050E+00   -2.2684310019E+00   -2.2662889518E+00
   -2.2641509434E+00   -2.2620169651E+00   -2.2598870056E+00   -2.2577610536E+00
   -2.2556390977E+00   -2.2535211268E+00   -2.2514071295E+00   -2.2492970947E+00
   -2.2471910112E+00   -2.2450888681E+00   -2.2429906542E+00   -2.2408963585E+00
   -2.2388059701E+00   -2.2367194781E+00   -2.2346368715E+00   -2.2325581395E+00
   -2.2304832714E+00   -2.2284122563E+00   -2.2263450835E+00   -2.2242817424E+00
   -2.2222222222E+00   -2.2201665125E+00   -2.2181146026E+00   -2.2160664820E+00
   -2.2140221402E+00   -2.2119815668E+00   -2.2099447514E+00   -2.2079116835E+00
   -2.2058823529E+00   -2.2038567493E+00   -2.2018348624E+00   -2.1998166819E+00
   -2.1978021978E+00   -2.1957913998E+00   -2.1937842779E+00   -2.1917808219E+00
   -2.1897810219E+00   -2.1877848678E+00   -2.1857923497E+00   -2.1838034577E+00
   -2.1818181818E+00   -2.1798365123E+00   -2.1778584392E+00   -2.1758839529E+00
   -2.1739130435E+00   -2.1719457014E+00   -2.1699819168E+00   -2.1680216802E+00
   -2.1660649819E+00   -2.1641118124E+00   -2.1621621622E+00   -2.1602160216E+00
   -2.1582733813E+00   -2.1563342318E+00   -2.1543985637E+00   -2.1524663677E+00
   -2.1505376344E+00   -2.1486123545E+00   -2.1466905188E+00   -2.1447721180E+00
   -2.1428571429E+00   -2.1409455843E+00   -2.1390374332E+00   -2.1371326803E+00
   -2.1352313167E+00   -2.1333333333E+00   -2.1314387211E+00   -2.1295474712E+00
   -2.1276595745E+00   -2.1257750221E+00   -2.1238938053E+00   -2.1220159151E+00
   -2.1201413428E+00   -2.1182700794E+00   -2.1164021164E+00   -2.1145374449E+00
   -2.1126760563E+00   -2.1108179420E+00   -2.1089630931E+00   -2.1071115013E+00
   -2.1052631579E+00   -2.1034180543E+00   -2.1015761821E+00   -2.0997375328E+00
   -2.0979020979E+00   -2.0960698690E+00   -2.0942408377E+00   -2.0924149956E+00
   -2.0905923345E+00   -2.0887728460E+00   -2.0869565217E+00   -2.0851433536E+00
   -2.0833333333E+00   -2.0815264527E+00   -2.0797227036E+00   -2.0779220779E+00
   -2.0761245675E+00   -2.0743301642E+00   -2.0725388601E+00   -2.0707506471E+00
   -2.0689655172E+00   -2.0671834625E+00   -2.0654044750E+00   -2.0636285469E+00
   -2.0618556701E+00   -2.0600858369E+00   -2.0583190395E+00   -2.0565552699E+00
   -2.0547945205E+00   -2.0530367836E+00   -2.0512820513E+00   -2.0495303160E+00
   -2.0477815700E+00   -2.0460358056E+00   -2.0442930153E+00   -2.0425531915E+00
   -2.0408163265E+00   -2.0390824129E+00   -2.0373514431E+00   -2.0356234097E+00
   -2.0338983051E+00   -2.0321761219E+00   -2.0304568528E+00   -2.0287404903E+00
   -2.0270270270E+00   -2.0253164557E+00   -2.0236087690E+00   -2.0219039596E+00
   -2.0202020202E+00   -2.0185029437E+00   -2.0168067227E+00   -2.0151133501E+00
   -2.0134228188E+00   -2.0117351215E+00   -2.0100502513E+00   -2.0083682008E+00
   -2.0066889632E+00   -2.0050125313E+00   -2.0033388982E+00   -2.0016680567E+00
   -2.0000000000E+00   -1.9983347211E+00   -1.9966722130E+00   -1.9950124688E+00
   -1.9933554817E+00   -1.9917012448E+00   -1.9900497512E+00   -1.9884009942E+00
   -1.9867549669E+00   -1.9851116625E+00   -1.9834710744E+00   -1.9818331957E+00
   -1.9801980198E+00   -1.9785655400E+00   -1.9769357496E+00   -1.9753086420E+00
   -1.9736842105E+00   -1.9720624486E+00   -1.9704433498E+00   -1.9688269073E+00
   -1.9672131148E+00   -1.9656019656E+00   -1.9639934534E+00   -1.9623875715E+00
   -1.9607843137E+00   -1.9591836735E+00   -1.9575856444E+00   -1.9559902200E+00
   -1.9543973941E+00   -1.9528071603E+00   -1.9512195122E+00   -1.9496344435E+00
   -1.9480519481E+00   -1.9464720195E+00   -1.9448946515E+00   -1.9433198381E+00
   -1.9417475728E+00   -1.9401778496E+00   -1.9386106624E+00   -1.9370460048E+00
   -1.9354838710E+00   -1.9339242546E+00   -1.9323671498E+00   -1.9308125503E+00
   -1.9292604502E+00   -1.9277108434E+00   -1.9261637239E+00   -1.9246190858E+00
   -1.9230769231E+00   -1.9215372298E+00   -1.9200000000E+00   -1.9184652278E+00
   -1.9169329073E+00   -1.9154030327E+00   -1.9138755981E+00   -1.9123505976E+00
   -1.9108280255E+00   -1.9093078759E+00   -1.9077901431E+00   -1.9062748213E+00
   -1.9047619048E+00   -1.9032513878E+00   -1.9017432647E+00   -1.9002375297E+00
   -1.8987341772E+00   -1.8972332016E+00   -1.8957345972E+00   -1.8942383583E+00
   -1.8927444795E+00   -1.8912529551E+00   -1.8897637795E+00   -1.8882769473E+00
   -1.8867924528E+00   -1.8853102907E+00   -1.8838304553E+00   -1.8823529412E+00
   -1.8808777429E+00   -1.8794048551E+00   -1.8779342723E+00   -1.8764659891E+00
   -1.8750000000E+00   -1.8735362998E+00   -1.8720748830E+00   -1.8706157443E+00
   -1.8691588785E+00   -1.8677042802E+00   -1.8662519440E+00   -1.8648018648E+00
   -1.8633540373E+00   -1.8619084562E+00   -1.8604651163E+00   -1.8590240124E+00
   -1.8575851393E+00   -1.8561484919E+00   -1.8547140649E+00   -1.8532818533E+00
   -1.8518518519E+00   -1.8504240555E+00   -1.8489984592E+00   -1.8475750577E+00
   -1.8461538462E+00   -1.8447348194E+00   -1.8433179724E+00   -1.8419033001E+00
   -1.8404907975E+00   -1.8390804598E+00   -1.8376722818E+00   -1.8362662586E+00
   -1.8348623853E+00   -1.8334606570E+00   -1.8320610687E+00   -1.8306636156E+00
   -1.8292682927E+00   -1.8278750952E+00   -1.8264840183E+00   -1.8250950570E+00
   -1.8237082067E+00   -1.8223234624E+00   -1.8209408194E+00   -1.8195602729E+00
   -1.8181818182E+00   -1.8168054504E+00   -1.8154311649E+00   -1.8140589569E+00
   -1.8126888218E+00   -1.8113207547E+00   -1.8099547511E+00   -1.8085908063E+00
   -1.8072289157E+00   -1.8058690745E+00   -1.8045112782E+00   -1.8031555222E+00
   -1.8018018018E+00   -1.8004501125E+00   -1.7991004498E+00   -1.7977528090E+00
   -1.7964071856E+00   -1.7950635752E+00   -1.7937219731E+00   -1.7923823749E+00
   -1.7910447761E+00   -1.7897091723E+00   -1.7883755589E+00   -1.7870439315E+00
   -1.7857142857E+00   -1.7843866171E+00   -1.7830609212E+00   -1.7817371938E+00
   -1.7804154303E+00   -1.7790956264E+00   -1.7777777778E+00   -1.7764618801E+00
   -1.7751479290E+00   -1.7738359202E+00   -1.7725258493E+00   -1.7712177122E+00
   -1.7699115044E+00   -1.7686072218E+00   -1.7673048601E+00   -1.7660044150E+00
   -1.7647058824E+00   -1.7634092579E+00   -1.7621145374E+00   -1.7608217168E+00
   -1.7595307918E+00   -1.7582417582E+00   -1.7569546120E+00   -1.7556693489E+00
   -1.7543859649E+00   -1.7531044558E+00   -1.7518248175E+00   -1.7505470460E+00
   -1.7492711370E+00   -1.7479970867E+00   -1.7467248908E+00   -1.7454545455E+00
   -1.7441860465E+00   -1.7429193900E+00   -1.7416545718E+00   -1.7403915881E+00
   -1.7391304348E+00   -1.7378711079E+00   -1.7366136035E+00   -1.7353579176E+00
   -1.7341040462E+00   -1.7328519856E+00   -1.7316017316E+00   -1.7303532805E+00
   -1.7291066282E+00   -1.7278617711E+00   -1.7266187050E+00   -1.7253774263E+00
   -1.7241379310E+00   -1.7229002154E+00   -1.7216642755E+00   -1.7204301075E+00
   -1.7191977077E+00   -1.7179670723E+00   -1.7167381974E+00   -1.7155110793E+00
   -1.7142857143E+00   -1.7130620985E+00   -1.7118402282E+00   -1.7106200998E+00
   -1.7094017094E+00   -1.7081850534E+00   -1.7069701280E+00   -1.7057569296E+00
   -1.7045454545E+00   -1.7033356991E+00   -1.7021276596E+00   -1.7009213324E+00
   -1.6997167139E+00   -1.6985138004E+00   -1.6973125884E+00   -1.6961130742E+00
   -1.6949152542E+00   -1.6937191249E+00   -1.6925246827E+00   -1.6913319239E+00
   -1.6901408451E+00   -1.6889514426E+00   -1.6877637131E+00   -1.6865776528E+00
   -1.6853932584E+00   -1.6842105263E+00   -1.6830294530E+00   -1.6818500350E+00
   -1.6806722689E+00   -1.6794961512E+00   -1.6783216783E+00   -1.6771488470E+00
   -1.6759776536E+00   -1.6748080949E+00   -1.6736401674E+00   -1.6724738676E+00
   -1.6713091922E+00   -1.6701461378E+00   -1.6689847010E+00   -1.6678248784E+00
   -1.6666666667E+00   -1.6655100625E+00   -1.6643550624E+00   -1.6632016632E+00
   -1.6620498615E+00   -1.6608996540E+00   -1.6597510373E+00   -1.6586040083E+00
   -1.6574585635E+00   -1.6563146998E+00   -1.6551724138E+00   -1.6540317023E+00
   -1.6528925620E+00   -1.6517549897E+00   -1.6506189821E+00   -1.6494845361E+00
   -1.6483516484E+00   -1.6472203157E+00   -1.6460905350E+00   -1.6449623029E+00
   -1.6438356164E+00   -1.6427104723E+00   -1.6415868673E+00   -1.6404647984E+00
   -1.6393442623E+00   -1.6382252560E+00   -1.6371077763E+00   -1.6359918200E+00
   -1.6348773842E+00   -1.6337644656E+00   -1.6326530612E+00   -1.6315431679E+00
   -1.6304347826E+00   -1.6293279022E+00   -1.6282225237E+00   -1.6271186441E+00
   -1.6260162602E+00   -1.6249153690E+00   -1.6238159675E+00   -1.6227180527E+00
   -1.6216216216E+00   -1.6205266712E+00   -1.6194331984E+00   -1.6183412003E+00
   -1.6172506739E+00   -1.6161616162E+00   -1.6150740242E+00   -1.6139878951E+00
   -1.6129032258E+00   -1.6118200134E+00   -1.6107382550E+00   -1.6096579477E+00
   -1.6085790885E+00   -1.6075016745E+00   -1.6064257028E+00   -1.6053511706E+00
   -1.6042780749E+00   -1.6032064128E+00   -1.6021361816E+00   -1.6010673783E+00
   -1.6000000000E+00   -1.5989340440E+00   -1.5978695073E+00   -1.5968063872E+00
   -1.5957446809E+00   -1.5946843854E+00   -1.5936254980E+00   -1.5925680159E+00
   -1.5915119363E+00   -1.5904572565E+00   -1.5894039735E+00   -1.5883520847E+00
   -1.5873015873E+00   -1.5862524785E+00   -1.5852047556E+00   -1.5841584158E+00
   -1.5831134565E+00   -1.5820698748E+00   -1.5810276680E+00   -1.5799868334E+00
   -1.5789473684E+00   -1.5779092702E+00   -1.5768725361E+00   -1.5758371635E+00
   -1.5748031496E+00   -1.5737704918E+00   -1.5727391874E+00   -1.5717092338E+00
   -1.5706806283E+00   -1.5696533682E+00   -1.5686274510E+00   -1.5676028739E+00
   -1.5665796345E+00   -1.5655577299E+00   -1.5645371578E+00   -1.5635179153E+00
   -1.5625000000E+00   -1.5614834092E+00   -1.5604681404E+00   -1.5594541910E+00
   -1.5584415584E+00   -1.5574302401E+00   -1.5564202335E+00   -1.5554115360E+00
   -1.5544041451E+00   -1.5533980583E+00   -1.5523932730E+00   -1.5513897867E+00
   -1.5503875969E+00   -1.5493867011E+00   -1.5483870968E+00   -1.5473887814E+00
   -1.5463917526E+00   -1.5453960077E+00
  </PP_LOCAL>
 <PP_NONLOCAL>
   <PP_BETA.1
       type="real"
       size="1554"
       columns="4"
       index="1"
       angular_momentum="0"
       cutoff_radius_index=" 172"
       cutoff_radius="    1.7100000000E+00" >
    1.7229132565E-09    8.2594183099E-02    1.6500070602E-01    2.4703191815E-01
    3.2850020336E-01    4.0921803519E-01    4.8899807625E-01    5.6765333456E-01
    6.4499738765E-01    7.2084468344E-01    7.9501092424E-01    8.6731353792E-01
    9.3757223739E-01    1.0056096666E+00    1.0712521288E+00    1.1343303893E+00
    1.1946805437E+00    1.2521449377E+00    1.3065731254E+00    1.3578228494E+00
    1.4057610236E+00    1.4502647024E+00    1.4912220144E+00    1.5285330432E+00
    1.5621106355E+00    1.5918811183E+00    1.6177849103E+00    1.6397770107E+00
    1.6578273551E+00    1.6719210265E+00    1.6820583177E+00    1.6882546376E+00
    1.6905402649E+00    1.6889599486E+00    1.6835723639E+00    1.6744494327E+00
    1.6616755204E+00    1.6453465252E+00    1.6255688793E+00    1.6024584806E+00
    1.5761395788E+00    1.5467436405E+00    1.5144082174E+00    1.4792758450E+00
    1.4414929964E+00    1.4012091194E+00    1.3585757779E+00    1.3137459235E+00
    1.2668733147E+00    1.2181121009E+00    1.1676165809E+00    1.1155411408E+00
    1.0620403683E+00    1.0072693304E+00    9.5138399180E-01    8.9454173880E-01
    8.3690196251E-01    7.7862664111E-01    7.1988085110E-01    6.6083312940E-01
    6.0165560546E-01    5.4252382807E-01    4.8361622807E-01    4.2511318807E-01
    3.6719573780E-01    3.1004396170E-01    2.5383530206E-01    1.9874307899E-01
    1.4493575631E-01    9.2577810747E-02    4.1833592931E-02   -7.1151334224E-03
   -5.3846674891E-02   -9.8075168861E-02   -1.3964391836E-01   -1.7841520743E-01
   -2.1427648832E-01   -2.4714559787E-01   -2.7697450158E-01   -3.0375058602E-01
   -3.2749475113E-01   -3.4825600915E-01   -3.6610293627E-01   -3.8111300220E-01
   -3.9336130727E-01   -4.0291038477E-01   -4.0980239857E-01   -4.1405445956E-01
   -4.1567665876E-01   -4.1471165643E-01   -4.1121953994E-01   -4.0527738436E-01
   -3.9698234971E-01   -3.8645389403E-01   -3.7383489946E-01   -3.5929165235E-01
   -3.4301271746E-01   -3.2520680615E-01   -3.0609977654E-01   -2.8593093069E-01
   -2.6494879467E-01   -2.4340658180E-01   -2.2155754288E-01   -1.9965039740E-01
   -1.7792501653E-01   -1.5660849455E-01   -1.3591170559E-01   -1.1602640403E-01
   -9.7122894383E-02   -7.9348271886E-02   -6.2825219813E-02   -4.7651341560E-02
   -3.3899001326E-02   -2.1615643275E-02   -1.0824553272E-02   -1.5260189029E-03
    6.3011673480E-03    1.2697928382E-02    1.7722923433E-02    2.1450454625E-02
    2.3968347667E-02    2.5375893940E-02    2.5781935560E-02    2.5303166477E-02
    2.4062714395E-02    2.2189065659E-02    1.9815405964E-02    1.7079485734E-02
    1.4124197252E-02    1.1099213192E-02    8.1641102096E-03    5.5076152950E-03
    3.2818212619E-03    1.5808452055E-03    4.7576008720E-04    1.5638475053E-05
    5.6679389017E-08    0.0000000000E+00    0.0000000000E+00    0.0000000000E+00
    0.0000000000E+00    0.0000000000E+00    0.0000000000E+00    0.0000000000E+00
    0.0000000000E+00    0.0000000000E+00    0.0000000000E+00    0.0000000000E+00
    0.0000000000E+00    0.0000000000E+00    0.0000000000E+00    0.0000000000E+00
    0.0000000000E+00    0.0000000000E+00    0.0000000000E+00    0.0000000000E+00
    0.0000000000E+00    0.0000000000E+00    0.0000000000E+00    0.0000000000E+00
    0.0000000000E+00    0.0000000000E+00    0.0000000000E+00    0.0000000000E+00
    0.0000000000E+00    0.0000000000E+00    0.0000000000E+00    0.0000000000E+00
    0.0000000000E+00    0.0000000000E+00    0.0000000000E+00    0.0000000000E+00
 0. 0. 0. 0.
 0. 0. 0. 0.
 0. 0. 0. 0.
 0. 0. 0. 0.
 0. 0. 0. 0.
 0. 0. 0. 0.
 0. 0. 0. 0.
 0. 0. 0. 0.
 0. 0. 0. 0.
 0. 0. 0. 0.
 0. 0. 0. 0.
 0. 0. 0. 0.
 0. 0. 0. 0.
 0. 0. 0. 0.
 0. 0. 0. 0.
 0. 0. 0. 0.
 0. 0. 0. 0.
 0. 0. 0. 0.
 0. 0. 0. 0.
 0. 0. 0. 0.
 0. 0. 0. 0.
 0. 0. 0. 0.
 0. 0. 0. 0.
 0. 0. 0. 0.
 0. 0. 0. 0.
 0. 0. 0. 0.
 0. 0. 0. 0.
 0. 0. 0. 0.
 0. 0. 0. 0.
 0. 0. 0. 0.
 0. 0. 0. 0.
 0. 0. 0. 0.
 0. 0. 0. 0.
 0. 0. 0. 0.
 0. 0. 0. 0.
 0. 0. 0. 0.
 0. 0. 0. 0.
 0. 0. 0. 0.
 0. 0. 0. 0.
 0. 0. 0. 0.
 0. 0. 0. 0.
 0. 0. 0. 0.
 0. 0. 0. 0.
 0. 0. 0. 0.
 0. 0. 0. 0.
 0. 0. 0. 0.
 0. 0. 0. 0.
 0. 0. 0. 0.
 0. 0. 0. 0.
 0. 0. 0. 0.
 0. 0. 0. 0.
 0. 0. 0. 0.
 0. 0. 0. 0.
 0. 0. 0. 0.
 0. 0. 0. 0.
 0. 0. 0. 0.
 0. 0. 0. 0.
 0. 0. 0. 0.
 0. 0. 0. 0.
 0. 0. 0. 0.
 0. 0. 0. 0.
 0. 0. 0. 0.
 0. 0. 0. 0.
 0. 0. 0. 0.
 0. 0. 0. 0.
 0. 0. 0. 0.
 0. 0. 0. 0.
 0. 0. 0. 0.
 0. 0. 0. 0.
 0. 0. 0. 0.
 0. 0. 0. 0.
 0. 0. 0. 0.
 0. 0. 0. 0.
 0. 0. 0. 0.
 0. 0. 0. 0.
 0. 0. 0. 0.
 0. 0. 0. 0.
 0. 0. 0. 0.
 0. 0. 0. 0.
 0. 0. 0. 0.
 0. 0. 0. 0.
 0. 0. 0. 0.
 0. 0. 0. 0.
 0. 0. 0. 0.
 0. 0. 0. 0.
 0. 0. 0. 0.
 0. 0. 0. 0.
 0. 0. 0. 0.
 0. 0. 0. 0.
 0. 0. 0. 0.
 0. 0. 0. 0.
 0. 0. 0. 0.
 0. 0. 0. 0.
 0. 0. 0. 0.
 0. 0. 0. 0.
 0. 0. 0. 0.
 0. 0. 0. 0.
 0. 0. 0. 0.
 0. 0. 0. 0.
 0. 0. 0. 0.
 0. 0. 0. 0.
 0. 0. 0. 0.
 0. 0. 0. 0.
 0. 0. 0. 0.
 0. 0. 0. 0.
 0. 0. 0. 0.
 0. 0. 0. 0.
 0. 0. 0. 0.
 0. 0. 0. 0.
 0. 0. 0. 0.
 0. 0. 0. 0.
 0. 0. 0. 0.
 0. 0. 0. 0.
 0. 0. 0. 0.
 0. 0. 0. 0.
 0. 0. 0. 0.
 0. 0. 0. 0.
 0. 0. 0. 0.
 0. 0. 0. 0.
 0. 0. 0. 0.
 0. 0. 0. 0.
 0. 0. 0. 0.
 0. 0. 0. 0.
 0. 0. 0. 0.
 0. 0. 0. 0.
 0. 0. 0. 0.
 0. 0. 0. 0.
 0. 0. 0. 0.
 0. 0. 0. 0.
 0. 0. 0. 0.
 0. 0. 0. 0.
 0. 0. 0. 0.
 0. 0. 0. 0.
 0. 0. 0. 0.
 0. 0. 0. 0.
 0. 0. 0. 0.
 0. 0. 0. 0.
 0. 0. 0. 0.
 0. 0. 0. 0.
 0. 0. 0. 0.
 0. 0. 0. 0.
 0. 0. 0. 0.
 0. 0. 0. 0.
 0. 0. 0. 0.
 0. 0. 0. 0.
 0. 0. 0. 0.
 0. 0. 0. 0.
 0. 0. 0. 0.
 0. 0. 0. 0.
 0. 0. 0. 0.
 0. 0. 0. 0.
 0. 0. 0. 0.
 0. 0. 0. 0.
 0. 0. 0. 0.
 0. 0. 0. 0.
 0. 0. 0. 0.
 0. 0. 0. 0.
 0. 0. 0. 0.
 0. 0. 0. 0.
 0. 0. 0. 0.
 0. 0. 0. 0.
 0. 0. 0. 0.
 0. 0. 0. 0.
 0. 0. 0. 0.
 0. 0. 0. 0.
 0. 0. 0. 0.
 0. 0. 0. 0.
 0. 0. 0. 0.
 0. 0. 0. 0.
 0. 0. 0. 0.
 0. 0. 0. 0.
 0. 0. 0. 0.
 0. 0. 0. 0.
 0. 0. 0. 0.
 0. 0. 0. 0.
 0. 0. 0. 0.
 0. 0. 0. 0.
 0. 0. 0. 0.
 0. 0. 0. 0.
 0. 0. 0. 0.
 0. 0. 0. 0.
 0. 0. 0. 0.
 0. 0. 0. 0.
 0. 0. 0. 0.
 0. 0. 0. 0.
 0. 0. 0. 0.
 0. 0. 0. 0.
 0. 0. 0. 0.
 0. 0. 0. 0.
 0. 0. 0. 0.
 0. 0. 0. 0.
 0. 0. 0. 0.
 0. 0. 0. 0.
 0. 0. 0. 0.
 0. 0. 0. 0.
 0. 0. 0. 0.
 0. 0. 0. 0.
 0. 0. 0. 0.
 0. 0. 0. 0.
 0. 0. 0. 0.
 0. 0. 0. 0.
 0. 0. 0. 0.
 0. 0. 0. 0.
 0. 0. 0. 0.
 0. 0. 0. 0.
 0. 0. 0. 0.
 0. 0. 0. 0.
 0. 0. 0. 0.
 0. 0. 0. 0.
 0. 0. 0. 0.
 0. 0. 0. 0.
 0. 0. 0. 0.
 0. 0. 0. 0.
 0. 0. 0. 0.
 0. 0. 0. 0.
 0. 0. 0. 0.
 0. 0. 0. 0.
 0. 0. 0. 0.
 0. 0. 0. 0.
 0. 0. 0. 0.
 0. 0. 0. 0.
 0. 0. 0. 0.
 0. 0. 0. 0.
 0. 0. 0. 0.
 0. 0. 0. 0.
 0. 0. 0. 0.
 0. 0. 0. 0.
 0. 0. 0. 0.
 0. 0. 0. 0.
 0. 0. 0. 0.
 0. 0. 0. 0.
 0. 0. 0. 0.
 0. 0. 0. 0.
 0. 0. 0. 0.
 0. 0. 0. 0.
 0. 0. 0. 0.
 0. 0. 0. 0.
 0. 0. 0. 0.
 0. 0. 0. 0.
 0. 0. 0. 0.
 0. 0. 0. 0.
 0. 0. 0. 0.
 0. 0. 0. 0.
 0. 0. 0. 0.
 0. 0. 0. 0.
 0. 0. 0. 0.
 0. 0. 0. 0.
 0. 0. 0. 0.
 0. 0. 0. 0.
 0. 0. 0. 0.
 0. 0. 0. 0.
 0. 0. 0. 0.
 0. 0. 0. 0.
 0. 0. 0. 0.
 0. 0. 0. 0.
 0. 0. 0. 0.
 0. 0. 0. 0.
 0. 0. 0. 0.
 0. 0. 0. 0.
 0. 0. 0. 0.
 0. 0. 0. 0.
 0. 0. 0. 0.
 0. 0. 0. 0.
 0. 0. 0. 0.
 0. 0. 0. 0.
 0. 0. 0. 0.
 0. 0. 0. 0.
 0. 0. 0. 0.
 0. 0. 0. 0.
 0. 0. 0. 0.
 0. 0. 0. 0.
 0. 0. 0. 0.
 0. 0. 0. 0.
 0. 0. 0. 0.
 0. 0. 0. 0.
 0. 0. 0. 0.
 0. 0. 0. 0.
 0. 0. 0. 0.
 0. 0. 0. 0.
 0. 0. 0. 0.
 0. 0. 0. 0.
 0. 0. 0. 0.
 0. 0. 0. 0.
 0. 0. 0. 0.
 0. 0. 0. 0.
 0. 0. 0. 0.
 0. 0. 0. 0.
 0. 0. 0. 0.
 0. 0. 0. 0.
 0. 0. 0. 0.
 0. 0. 0. 0.
 0. 0. 0. 0.
 0. 0. 0. 0.
 0. 0. 0. 0.
 0. 0. 0. 0.
 0. 0. 0. 0.
 0. 0. 0. 0.
 0. 0. 0. 0.
 0. 0. 0. 0.
 0. 0. 0. 0.
 0. 0. 0. 0.
 0. 0. 0. 0.
 0. 0. 0. 0.
 0. 0. 0. 0.
 0. 0. 0. 0.
 0. 0. 0. 0.
 0. 0. 0. 0.
 0. 0. 0. 0.
 0. 0. 0. 0.
 0. 0. 0. 0.
 0. 0. 0. 0.
 0. 0. 0. 0.
 0. 0. 0. 0.
 0. 0. 0. 0.
 0. 0. 0. 0.
 0. 0. 0. 0.
 0. 0. 0. 0.
 0. 0. 0. 0.
 0. 0. 0. 0.
 0. 0. 0. 0.
 0. 0. 0. 0.
 0. 0. 0. 0.
 0. 0. 0. 0.
 0. 0. 0. 0.
 0. 0. 0. 0.
 0. 0. 0. 0.
 0. 0. 0. 0.
 0. 0. 0. 0.
 0. 0. 0. 0.
 0. 0. 0. 0.
 0. 0. 0. 0.
 0. 0. 0. 0.
 0. 0. 0. 0.
 0. 0. 0. 0.
 0. 0. 0. 0.
 0. 0. 0. 0.
 0. 0. 0. 0.
 0. 0. 0. 0.
 0. 0. 0. 0.
 0. 0. 0. 0.
 0. 0. 0. 0.
 0. 0. 0. 0.
 0. 0. 0. 0.
 0. 0. 0. 0.
 0. 0. 0. 0.
 0. 0.
   </PP_BETA.1>
   <PP_BETA.2
       type="real"
       size="1554"
       columns="4"
       index="2"
       angular_momentum="0"
       cutoff_radius_index=" 172"
       cutoff_radius="    1.7100000000E+00" >
   -5.1835193637E-09   -3.1793768750E-02   -6.3428952163E-02   -9.4746246410E-02
   -1.2558495632E-01   -1.5578241240E-01   -1.8517351930E-01   -2.1359047313E-01
   -2.4086268003E-01   -2.6681690205E-01   -2.9127764935E-01   -3.1406783003E-01
   -3.3500966075E-01   -3.5392583255E-01   -3.7064091832E-01   -3.8498299982E-01
   -3.9678548440E-01   -4.0588907486E-01   -4.1214384921E-01   -4.1541140251E-01
   -4.1556699871E-01   -4.1250167812E-01   -4.0612426501E-01   -3.9636322035E-01
   -3.8316828643E-01   -3.6651187391E-01   -3.4639014636E-01   -3.2282376382E-01
   -2.9585825405E-01   -2.6556398888E-01   -2.3203575191E-01   -1.9539189396E-01
   -1.5577308280E-01   -1.1334066404E-01   -6.8274660304E-02   -2.0771445813E-02
    2.8958857125E-02    8.0695204806E-02    1.3420861930E-01    1.8926526717E-01
    2.4562955560E-01    3.0306716837E-01    3.6134796221E-01    4.2024864391E-01
    4.7955515066E-01    5.3906466012E-01    5.9858716321E-01    6.5794654164E-01
    7.1698110396E-01    7.7554354871E-01    8.3350034099E-01    8.9073050970E-01
    9.4712389685E-01    1.0025789174E+00    1.0569999170E+00    1.1102942460E+00
    1.1623691988E+00    1.2131289932E+00    1.2624719889E+00    1.3102883518E+00
    1.3564583670E+00    1.4008515741E+00    1.4433268445E+00    1.4837334298E+00
    1.5219128807E+00    1.5577015601E+00    1.5909332309E+00    1.6214408568E+00
    1.6490562395E+00    1.6736052976E+00    1.6948954631E+00    1.7126651093E+00
    1.7259547460E+00    1.7342137923E+00    1.7372470682E+00    1.7348889359E+00
    1.7270197290E+00    1.7135790705E+00    1.6945750557E+00    1.6700870473E+00
    1.6402605530E+00    1.6052938826E+00    1.5654178762E+00    1.5208715721E+00
    1.4718777231E+00    1.4186221205E+00    1.3612396339E+00    1.2998082367E+00
    1.2343987344E+00    1.1651741103E+00    1.0923512053E+00    1.0161994057E+00
    9.3704748728E-01    8.5528765761E-01    7.7137643117E-01    6.8583232105E-01
    5.9923056552E-01    5.1219523825E-01    4.2538916718E-01    3.3950213714E-01
    2.5523788689E-01    1.7330043090E-01    9.4380230988E-02    1.9140708606E-02
   -5.1794475621E-02   -1.1785303446E-01   -1.7852431311E-01   -2.3336803899E-01
   -2.8202148000E-01   -3.2420498351E-01   -3.5972590182E-01   -3.8848092727E-01
   -4.1045687129E-01   -4.2572993282E-01   -4.3446351815E-01   -4.3690469720E-01
   -4.3337941037E-01   -4.2428657101E-01   -4.1009123778E-01   -3.9131705580E-01
   -3.6853818090E-01   -3.4237090824E-01   -3.1346522470E-01   -2.8249649663E-01
   -2.5015749753E-01   -2.1715098297E-01   -1.8418304754E-01   -1.5195757348E-01
   -1.2117223346E-01   -9.2516823815E-02   -6.6674823012E-02   -4.4357086347E-02
   -2.6159841142E-02   -1.2513888014E-02   -3.7519801738E-03   -1.2326488695E-04
   -4.4646186046E-07    0.0000000000E+00    0.0000000000E+00    0.0000000000E+00
    0.0000000000E+00    0.0000000000E+00    0.0000000000E+00    0.0000000000E+00
    0.0000000000E+00    0.0000000000E+00    0.0000000000E+00    0.0000000000E+00
    0.0000000000E+00    0.0000000000E+00    0.0000000000E+00    0.0000000000E+00
    0.0000000000E+00    0.0000000000E+00    0.0000000000E+00    0.0000000000E+00
    0.0000000000E+00    0.0000000000E+00    0.0000000000E+00    0.0000000000E+00
    0.0000000000E+00    0.0000000000E+00    0.0000000000E+00    0.0000000000E+00
    0.0000000000E+00    0.0000000000E+00    0.0000000000E+00    0.0000000000E+00
    0.0000000000E+00    0.0000000000E+00    0.0000000000E+00    0.0000000000E+00
 0. 0. 0. 0.
 0. 0. 0. 0.
 0. 0. 0. 0.
 0. 0. 0. 0.
 0. 0. 0. 0.
 0. 0. 0. 0.
 0. 0. 0. 0.
 0. 0. 0. 0.
 0. 0. 0. 0.
 0. 0. 0. 0.
 0. 0. 0. 0.
 0. 0. 0. 0.
 0. 0. 0. 0.
 0. 0. 0. 0.
 0. 0. 0. 0.
 0. 0. 0. 0.
 0. 0. 0. 0.
 0. 0. 0. 0.
 0. 0. 0. 0.
 0. 0. 0. 0.
 0. 0. 0. 0.
 0. 0. 0. 0.
 0. 0. 0. 0.
 0. 0. 0. 0.
 0. 0. 0. 0.
 0. 0. 0. 0.
 0. 0. 0. 0.
 0. 0. 0. 0.
 0. 0. 0. 0.
 0. 0. 0. 0.
 0. 0. 0. 0.
 0. 0. 0. 0.
 0. 0. 0. 0.
 0. 0. 0. 0.
 0. 0. 0. 0.
 0. 0. 0. 0.
 0. 0. 0. 0.
 0. 0. 0. 0.
 0. 0. 0. 0.
 0. 0. 0. 0.
 0. 0. 0. 0.
 0. 0. 0. 0.
 0. 0. 0. 0.
 0. 0. 0. 0.
 0. 0. 0. 0.
 0. 0. 0. 0.
 0. 0. 0. 0.
 0. 0. 0. 0.
 0. 0. 0. 0.
 0. 0. 0. 0.
 0. 0. 0. 0.
 0. 0. 0. 0.
 0. 0. 0. 0.
 0. 0. 0. 0.
 0. 0. 0. 0.
 0. 0. 0. 0.
 0. 0. 0. 0.
 0. 0. 0. 0.
 0. 0. 0. 0.
 0. 0. 0. 0.
 0. 0. 0. 0.
 0. 0. 0. 0.
 0. 0. 0. 0.
 0. 0. 0. 0.
 0. 0. 0. 0.
 0. 0. 0. 0.
 0. 0. 0. 0.
 0. 0. 0. 0.
 0. 0. 0. 0.
 0. 0. 0. 0.
 0. 0. 0. 0.
 0. 0. 0. 0.
 0. 0. 0. 0.
 0. 0. 0. 0.
 0. 0. 0. 0.
 0. 0. 0. 0.
 0. 0. 0. 0.
 0. 0. 0. 0.
 0. 0. 0. 0.
 0. 0. 0. 0.
 0. 0. 0. 0.
 0. 0. 0. 0.
 0. 0. 0. 0.
 0. 0. 0. 0.
 0. 0. 0. 0.
 0. 0. 0. 0.
 0. 0. 0. 0.
 0. 0. 0. 0.
 0. 0. 0. 0.
 0. 0. 0. 0.
 0. 0. 0. 0.
 0. 0. 0. 0.
 0. 0. 0. 0.
 0. 0. 0. 0.
 0. 0. 0. 0.
 0. 0. 0. 0.
 0. 0. 0. 0.
 0. 0. 0. 0.
 0. 0. 0. 0.
 0. 0. 0. 0.
 0. 0. 0. 0.
 0. 0. 0. 0.
 0. 0. 0. 0.
 0. 0. 0. 0.
 0. 0. 0. 0.
 0. 0. 0. 0.
 0. 0. 0. 0.
 0. 0. 0. 0.
 0. 0. 0. 0.
 0. 0. 0. 0.
 0. 0. 0. 0.
 0. 0. 0. 0.
 0. 0. 0. 0.
 0. 0. 0. 0.
 0. 0. 0. 0.
 0. 0. 0. 0.
 0. 0. 0. 0.
 0. 0. 0. 0.
 0. 0. 0. 0.
 0. 0. 0. 0.
 0. 0. 0. 0.
 0. 0. 0. 0.
 0. 0. 0. 0.
 0. 0. 0. 0.
 0. 0. 0. 0.
 0. 0. 0. 0.
 0. 0. 0. 0.
 0. 0. 0. 0.
 0. 0. 0. 0.
 0. 0. 0. 0.
 0. 0. 0. 0.
 0. 0. 0. 0.
 0. 0. 0. 0.
 0. 0. 0. 0.
 0. 0. 0. 0.
 0. 0. 0. 0.
 0. 0. 0. 0.
 0. 0. 0. 0.
 0. 0. 0. 0.
 0. 0. 0. 0.
 0. 0. 0. 0.
 0. 0. 0. 0.
 0. 0. 0. 0.
 0. 0. 0. 0.
 0. 0. 0. 0.
 0. 0. 0. 0.
 0. 0. 0. 0.
 0. 0. 0. 0.
 0. 0. 0. 0.
 0. 0. 0. 0.
 0. 0. 0. 0.
 0. 0. 0. 0.
 0. 0. 0. 0.
 0. 0. 0. 0.
 0. 0. 0. 0.
 0. 0. 0. 0.
 0. 0. 0. 0.
 0. 0. 0. 0.
 0. 0. 0. 0.
 0. 0. 0. 0.
 0. 0. 0. 0.
 0. 0. 0. 0.
 0. 0. 0. 0.
 0. 0. 0. 0.
 0. 0. 0. 0.
 0. 0. 0. 0.
 0. 0. 0. 0.
 0. 0. 0. 0.
 0. 0. 0. 0.
 0. 0. 0. 0.
 0. 0. 0. 0.
 0. 0. 0. 0.
 0. 0. 0. 0.
 0. 0. 0. 0.
 0. 0. 0. 0.
 0. 0. 0. 0.
 0. 0. 0. 0.
 0. 0. 0. 0.
 0. 0. 0. 0.
 0. 0. 0. 0.
 0. 0. 0. 0.
 0. 0. 0. 0.
 0. 0. 0. 0.
 0. 0. 0. 0.
 0. 0. 0. 0.
 0. 0. 0. 0.
 0. 0. 0. 0.
 0. 0. 0. 0.
 0. 0. 0. 0.
 0. 0. 0. 0.
 0. 0. 0. 0.
 0. 0. 0. 0.
 0. 0. 0. 0.
 0. 0. 0. 0.
 0. 0. 0. 0.
 0. 0. 0. 0.
 0. 0. 0. 0.
 0. 0. 0. 0.
 0. 0. 0. 0.
 0. 0. 0. 0.
 0. 0. 0. 0.
 0. 0. 0. 0.
 0. 0. 0. 0.
 0. 0. 0. 0.
 0. 0. 0. 0.
 0. 0. 0. 0.
 0. 0. 0. 0.
 0. 0. 0. 0.
 0. 0. 0. 0.
 0. 0. 0. 0.
 0. 0. 0. 0.
 0. 0. 0. 0.
 0. 0. 0. 0.
 0. 0. 0. 0.
 0. 0. 0. 0.
 0. 0. 0. 0.
 0. 0. 0. 0.
 0. 0. 0. 0.
 0. 0. 0. 0.
 0. 0. 0. 0.
 0. 0. 0. 0.
 0. 0. 0. 0.
 0. 0. 0. 0.
 0. 0. 0. 0.
 0. 0. 0. 0.
 0. 0. 0. 0.
 0. 0. 0. 0.
 0. 0. 0. 0.
 0. 0. 0. 0.
 0. 0. 0. 0.
 0. 0. 0. 0.
 0. 0. 0. 0.
 0. 0. 0. 0.
 0. 0. 0. 0.
 0. 0. 0. 0.
 0. 0. 0. 0.
 0. 0. 0. 0.
 0. 0. 0. 0.
 0. 0. 0. 0.
 0. 0. 0. 0.
 0. 0. 0. 0.
 0. 0. 0. 0.
 0. 0. 0. 0.
 0. 0. 0. 0.
 0. 0. 0. 0.
 0. 0. 0. 0.
 0. 0. 0. 0.
 0. 0. 0. 0.
 0. 0. 0. 0.
 0. 0. 0. 0.
 0. 0. 0. 0.
 0. 0. 0. 0.
 0. 0. 0. 0.
 0. 0. 0. 0.
 0. 0. 0. 0.
 0. 0. 0. 0.
 0. 0. 0. 0.
 0. 0. 0. 0.
 0. 0. 0. 0.
 0. 0. 0. 0.
 0. 0. 0. 0.
 0. 0. 0. 0.
 0. 0. 0. 0.
 0. 0. 0. 0.
 0. 0. 0. 0.
 0. 0. 0. 0.
 0. 0. 0. 0.
 0. 0. 0. 0.
 0. 0. 0. 0.
 0. 0. 0. 0.
 0. 0. 0. 0.
 0. 0. 0. 0.
 0. 0. 0. 0.
 0. 0. 0. 0.
 0. 0. 0. 0.
 0. 0. 0. 0.
 0. 0. 0. 0.
 0. 0. 0. 0.
 0. 0. 0. 0.
 0. 0. 0. 0.
 0. 0. 0. 0.
 0. 0. 0. 0.
 0. 0. 0. 0.
 0. 0. 0. 0.
 0. 0. 0. 0.
 0. 0. 0. 0.
 0. 0. 0. 0.
 0. 0. 0. 0.
 0. 0. 0. 0.
 0. 0. 0. 0.
 0. 0. 0. 0.
 0. 0. 0. 0.
 0. 0. 0. 0.
 0. 0. 0. 0.
 0. 0. 0. 0.
 0. 0. 0. 0.
 0. 0. 0. 0.
 0. 0. 0. 0.
 0. 0. 0. 0.
 0. 0. 0. 0.
 0. 0. 0. 0.
 0. 0. 0. 0.
 0. 0. 0. 0.
 0. 0. 0. 0.
 0. 0. 0. 0.
 0. 0. 0. 0.
 0. 0. 0. 0.
 0. 0. 0. 0.
 0. 0. 0. 0.
 0. 0. 0. 0.
 0. 0. 0. 0.
 0. 0. 0. 0.
 0. 0. 0. 0.
 0. 0. 0. 0.
 0. 0. 0. 0.
 0. 0. 0. 0.
 0. 0. 0. 0.
 0. 0. 0. 0.
 0. 0. 0. 0.
 0. 0. 0. 0.
 0. 0. 0. 0.
 0. 0. 0. 0.
 0. 0. 0. 0.
 0. 0. 0. 0.
 0. 0. 0. 0.
 0. 0. 0. 0.
 0. 0. 0. 0.
 0. 0. 0. 0.
 0. 0. 0. 0.
 0. 0. 0. 0.
 0. 0. 0. 0.
 0. 0. 0. 0.
 0. 0. 0. 0.
 0. 0. 0. 0.
 0. 0. 0. 0.
 0. 0. 0. 0.
 0. 0. 0. 0.
 0. 0. 0. 0.
 0. 0. 0. 0.
 0. 0. 0. 0.
 0. 0. 0. 0.
 0. 0. 0. 0.
 0. 0. 0. 0.
 0. 0. 0. 0.
 0. 0. 0. 0.
 0. 0.
   </PP_BETA.2>
   <PP_BETA.3
       type="real"
       size="1554"
       columns="4"
       index="3"
       angular_momentum="1"
       cutoff_radius_index=" 172"
       cutoff_radius="    1.7100000000E+00" >
   -4.4570342694E-09    2.1970884525E-03    8.7792996603E-03    1.9719431944E-02
    3.4972021469E-02    5.4473161348E-02    7.8140269265E-02    1.0587182366E-01
    1.3754709295E-01    1.7302588584E-01    2.1214835345E-01    2.5473487535E-01
    3.0058606205E-01    3.4948290524E-01    4.0118710544E-01    4.5544160304E-01
    5.1197133438E-01    5.7048422964E-01    6.3067246253E-01    6.9221395585E-01
    7.5477413917E-01    8.1800794810E-01    8.8156204705E-01    9.4507725054E-01
    1.0081911115E+00    1.0705406391E+00    1.1317651042E+00    1.1915088861E+00
    1.2494243109E+00    1.3051744333E+00    1.3584357091E+00    1.4089005118E+00
    1.4562794458E+00    1.5003034145E+00    1.5407254075E+00    1.5773219759E+00
    1.6098943746E+00    1.6382693554E+00    1.6622996091E+00    1.6818638583E+00
    1.6968666174E+00    1.7072376431E+00    1.7129311103E+00    1.7139245550E+00
    1.7102176362E+00    1.7018307754E+00    1.6888037350E+00    1.6711942043E+00
    1.6490764588E+00    1.6225401569E+00    1.5916893336E+00    1.5566416385E+00
    1.5175278512E+00    1.4744916890E+00    1.4276898962E+00    1.3772925779E+00
    1.3234837074E+00    1.2664617061E+00    1.2064399615E+00    1.1436471232E+00
    1.0783270037E+00    1.0107379109E+00    9.4115126806E-01    8.6984943556E-01
    7.9712274805E-01    7.2326592880E-01    6.4857425535E-01    5.7334015674E-01
    4.9785137982E-01    4.2239258338E-01    3.4725338530E-01    2.7276401136E-01
    1.9973910771E-01    1.2877252278E-01    6.0216725786E-02   -5.6103863512E-03
   -6.8437315390E-02   -1.2804946734E-01   -1.8429703068E-01   -2.3709791425E-01
   -2.8643385864E-01   -3.3233879026E-01   -3.7487989958E-01   -4.1413349178E-01
   -4.5015889722E-01   -4.8297417037E-01   -5.1253672148E-01   -5.3873076112E-01
   -5.6140510989E-01   -5.8046117518E-01   -5.9582210793E-01   -6.0743354716E-01
   -6.1527239122E-01   -6.1935389719E-01   -6.1973657401E-01   -6.1652465711E-01
   -6.0986818283E-01   -5.9996082839E-01   -5.8703578022E-01   -5.7135996649E-01
   -5.5322704815E-01   -5.3294960612E-01   -5.1085098051E-01   -4.8725720494E-01
   -4.6248943253E-01   -4.3685717564E-01   -4.1065259131E-01   -3.8414595212E-01
   -3.5758236273E-01   -3.3117971813E-01   -3.0512785692E-01   -2.7958883739E-01
   -2.5469824726E-01   -2.3056744255E-01   -2.0728659233E-01   -1.8492838093E-01
   -1.6355218996E-01   -1.4320855116E-01   -1.2394363448E-01   -1.0580351706E-01
   -8.8837972737E-02   -7.3103530680E-02   -5.8665574605E-02   -4.5599286955E-02
   -3.3989277482E-02   -2.3927757615E-02   -1.5511109450E-02   -8.8346174911E-03
   -3.9849343121E-03   -1.0296862670E-03   -4.1764274757E-06    3.7482857913E-07
    0.0000000000E+00    0.0000000000E+00    0.0000000000E+00    0.0000000000E+00
    0.0000000000E+00    0.0000000000E+00    0.0000000000E+00    0.0000000000E+00
    0.0000000000E+00    0.0000000000E+00    0.0000000000E+00    0.0000000000E+00
    0.0000000000E+00    0.0000000000E+00    0.0000000000E+00    0.0000000000E+00
    0.0000000000E+00    0.0000000000E+00    0.0000000000E+00    0.0000000000E+00
    0.0000000000E+00    0.0000000000E+00    0.0000000000E+00    0.0000000000E+00
    0.0000000000E+00    0.0000000000E+00    0.0000000000E+00    0.0000000000E+00
    0.0000000000E+00    0.0000000000E+00    0.0000000000E+00    0.0000000000E+00
    0.0000000000E+00    0.0000000000E+00    0.0000000000E+00    0.0000000000E+00
    0.0000000000E+00    0.0000000000E+00    0.0000000000E+00    0.0000000000E+00
 0. 0. 0. 0.
 0. 0. 0. 0.
 0. 0. 0. 0.
 0. 0. 0. 0.
 0. 0. 0. 0.
 0. 0. 0. 0.
 0. 0. 0. 0.
 0. 0. 0. 0.
 0. 0. 0. 0.
 0. 0. 0. 0.
 0. 0. 0. 0.
 0. 0. 0. 0.
 0. 0. 0. 0.
 0. 0. 0. 0.
 0. 0. 0. 0.
 0. 0. 0. 0.
 0. 0. 0. 0.
 0. 0. 0. 0.
 0. 0. 0. 0.
 0. 0. 0. 0.
 0. 0. 0. 0.
 0. 0. 0. 0.
 0. 0. 0. 0.
 0. 0. 0. 0.
 0. 0. 0. 0.
 0. 0. 0. 0.
 0. 0. 0. 0.
 0. 0. 0. 0.
 0. 0. 0. 0.
 0. 0. 0. 0.
 0. 0. 0. 0.
 0. 0. 0. 0.
 0. 0. 0. 0.
 0. 0. 0. 0.
 0. 0. 0. 0.
 0. 0. 0. 0.
 0. 0. 0. 0.
 0. 0. 0. 0.
 0. 0. 0. 0.
 0. 0. 0. 0.
 0. 0. 0. 0.
 0. 0. 0. 0.
 0. 0. 0. 0.
 0. 0. 0. 0.
 0. 0. 0. 0.
 0. 0. 0. 0.
 0. 0. 0. 0.
 0. 0. 0. 0.
 0. 0. 0. 0.
 0. 0. 0. 0.
 0. 0. 0. 0.
 0. 0. 0. 0.
 0. 0. 0. 0.
 0. 0. 0. 0.
 0. 0. 0. 0.
 0. 0. 0. 0.
 0. 0. 0. 0.
 0. 0. 0. 0.
 0. 0. 0. 0.
 0. 0. 0. 0.
 0. 0. 0. 0.
 0. 0. 0. 0.
 0. 0. 0. 0.
 0. 0. 0. 0.
 0. 0. 0. 0.
 0. 0. 0. 0.
 0. 0. 0. 0.
 0. 0. 0. 0.
 0. 0. 0. 0.
 0. 0. 0. 0.
 0. 0. 0. 0.
 0. 0. 0. 0.
 0. 0. 0. 0.
 0. 0. 0. 0.
 0. 0. 0. 0.
 0. 0. 0. 0.
 0. 0. 0. 0.
 0. 0. 0. 0.
 0. 0. 0. 0.
 0. 0. 0. 0.
 0. 0. 0. 0.
 0. 0. 0. 0.
 0. 0. 0. 0.
 0. 0. 0. 0.
 0. 0. 0. 0.
 0. 0. 0. 0.
 0. 0. 0. 0.
 0. 0. 0. 0.
 0. 0. 0. 0.
 0. 0. 0. 0.
 0. 0. 0. 0.
 0. 0. 0. 0.
 0. 0. 0. 0.
 0. 0. 0. 0.
 0. 0. 0. 0.
 0. 0. 0. 0.
 0. 0. 0. 0.
 0. 0. 0. 0.
 0. 0. 0. 0.
 0. 0. 0. 0.
 0. 0. 0. 0.
 0. 0. 0. 0.
 0. 0. 0. 0.
 0. 0. 0. 0.
 0. 0. 0. 0.
 0. 0. 0. 0.
 0. 0. 0. 0.
 0. 0. 0. 0.
 0. 0. 0. 0.
 0. 0. 0. 0.
 0. 0. 0. 0.
 0. 0. 0. 0.
 0. 0. 0. 0.
 0. 0. 0. 0.
 0. 0. 0. 0.
 0. 0. 0. 0.
 0. 0. 0. 0.
 0. 0. 0. 0.
 0. 0. 0. 0.
 0. 0. 0. 0.
 0. 0. 0. 0.
 0. 0. 0. 0.
 0. 0. 0. 0.
 0. 0. 0. 0.
 0. 0. 0. 0.
 0. 0. 0. 0.
 0. 0. 0. 0.
 0. 0. 0. 0.
 0. 0. 0. 0.
 0. 0. 0. 0.
 0. 0. 0. 0.
 0. 0. 0. 0.
 0. 0. 0. 0.
 0. 0. 0. 0.
 0. 0. 0. 0.
 0. 0. 0. 0.
 0. 0. 0. 0.
 0. 0. 0. 0.
 0. 0. 0. 0.
 0. 0. 0. 0.
 0. 0. 0. 0.
 0. 0. 0. 0.
 0. 0. 0. 0.
 0. 0. 0. 0.
 0. 0. 0. 0.
 0. 0. 0. 0.
 0. 0. 0. 0.
 0. 0. 0. 0.
 0. 0. 0. 0.
 0. 0. 0. 0.
 0. 0. 0. 0.
 0. 0. 0. 0.
 0. 0. 0. 0.
 0. 0. 0. 0.
 0. 0. 0. 0.
 0. 0. 0. 0.
 0. 0. 0. 0.
 0. 0. 0. 0.
 0. 0. 0. 0.
 0. 0. 0. 0.
 0. 0. 0. 0.
 0. 0. 0. 0.
 0. 0. 0. 0.
 0. 0. 0. 0.
 0. 0. 0. 0.
 0. 0. 0. 0.
 0. 0. 0. 0.
 0. 0. 0. 0.
 0. 0. 0. 0.
 0. 0. 0. 0.
 0. 0. 0. 0.
 0. 0. 0. 0.
 0. 0. 0. 0.
 0. 0. 0. 0.
 0. 0. 0. 0.
 0. 0. 0. 0.
 0. 0. 0. 0.
 0. 0. 0. 0.
 0. 0. 0. 0.
 0. 0. 0. 0.
 0. 0. 0. 0.
 0. 0. 0. 0.
 0. 0. 0. 0.
 0. 0. 0. 0.
 0. 0. 0. 0.
 0. 0. 0. 0.
 0. 0. 0. 0.
 0. 0. 0. 0.
 0. 0. 0. 0.
 0. 0. 0. 0.
 0. 0. 0. 0.
 0. 0. 0. 0.
 0. 0. 0. 0.
 0. 0. 0. 0.
 0. 0. 0. 0.
 0. 0. 0. 0.
 0. 0. 0. 0.
 0. 0. 0. 0.
 0. 0. 0. 0.
 0. 0. 0. 0.
 0. 0. 0. 0.
 0. 0. 0. 0.
 0. 0. 0. 0.
 0. 0. 0. 0.
 0. 0. 0. 0.
 0. 0. 0. 0.
 0. 0. 0. 0.
 0. 0. 0. 0.
 0. 0. 0. 0.
 0. 0. 0. 0.
 0. 0. 0. 0.
 0. 0. 0. 0.
 0. 0. 0. 0.
 0. 0. 0. 0.
 0. 0. 0. 0.
 0. 0. 0. 0.
 0. 0. 0. 0.
 0. 0. 0. 0.
 0. 0. 0. 0.
 0. 0. 0. 0.
 0. 0. 0. 0.
 0. 0. 0. 0.
 0. 0. 0. 0.
 0. 0. 0. 0.
 0. 0. 0. 0.
 0. 0. 0. 0.
 0. 0. 0. 0.
 0. 0. 0. 0.
 0. 0. 0. 0.
 0. 0. 0. 0.
 0. 0. 0. 0.
 0. 0. 0. 0.
 0. 0. 0. 0.
 0. 0. 0. 0.
 0. 0. 0. 0.
 0. 0. 0. 0.
 0. 0. 0. 0.
 0. 0. 0. 0.
 0. 0. 0. 0.
 0. 0. 0. 0.
 0. 0. 0. 0.
 0. 0. 0. 0.
 0. 0. 0. 0.
 0. 0. 0. 0.
 0. 0. 0. 0.
 0. 0. 0. 0.
 0. 0. 0. 0.
 0. 0. 0. 0.
 0. 0. 0. 0.
 0. 0. 0. 0.
 0. 0. 0. 0.
 0. 0. 0. 0.
 0. 0. 0. 0.
 0. 0. 0. 0.
 0. 0. 0. 0.
 0. 0. 0. 0.
 0. 0. 0. 0.
 0. 0. 0. 0.
 0. 0. 0. 0.
 0. 0. 0. 0.
 0. 0. 0. 0.
 0. 0. 0. 0.
 0. 0. 0. 0.
 0. 0. 0. 0.
 0. 0. 0. 0.
 0. 0. 0. 0.
 0. 0. 0. 0.
 0. 0. 0. 0.
 0. 0. 0. 0.
 0. 0. 0. 0.
 0. 0. 0. 0.
 0. 0. 0. 0.
 0. 0. 0. 0.
 0. 0. 0. 0.
 0. 0. 0. 0.
 0. 0. 0. 0.
 0. 0. 0. 0.
 0. 0. 0. 0.
 0. 0. 0. 0.
 0. 0. 0. 0.
 0. 0. 0. 0.
 0. 0. 0. 0.
 0. 0. 0. 0.
 0. 0. 0. 0.
 0. 0. 0. 0.
 0. 0. 0. 0.
 0. 0. 0. 0.
 0. 0. 0. 0.
 0. 0. 0. 0.
 0. 0. 0. 0.
 0. 0. 0. 0.
 0. 0. 0. 0.
 0. 0. 0. 0.
 0. 0. 0. 0.
 0. 0. 0. 0.
 0. 0. 0. 0.
 0. 0. 0. 0.
 0. 0. 0. 0.
 0. 0. 0. 0.
 0. 0. 0. 0.
 0. 0. 0. 0.
 0. 0. 0. 0.
 0. 0. 0. 0.
 0. 0. 0. 0.
 0. 0. 0. 0.
 0. 0. 0. 0.
 0. 0. 0. 0.
 0. 0. 0. 0.
 0. 0. 0. 0.
 0. 0. 0. 0.
 0. 0. 0. 0.
 0. 0. 0. 0.
 0. 0. 0. 0.
 0. 0. 0. 0.
 0. 0. 0. 0.
 0. 0. 0. 0.
 0. 0. 0. 0.
 0. 0. 0. 0.
 0. 0. 0. 0.
 0. 0. 0. 0.
 0. 0. 0. 0.
 0. 0. 0. 0.
 0. 0. 0. 0.
 0. 0. 0. 0.
 0. 0. 0. 0.
 0. 0. 0. 0.
 0. 0. 0. 0.
 0. 0. 0. 0.
 0. 0. 0. 0.
 0. 0. 0. 0.
 0. 0. 0. 0.
 0. 0. 0. 0.
 0. 0. 0. 0.
 0. 0. 0. 0.
 0. 0. 0. 0.
 0. 0. 0. 0.
 0. 0. 0. 0.
 0. 0. 0. 0.
 0. 0. 0. 0.
 0. 0. 0. 0.
 0. 0. 0. 0.
 0. 0. 0. 0.
 0. 0. 0. 0.
 0. 0. 0. 0.
 0. 0. 0. 0.
 0. 0.
   </PP_BETA.3>
   <PP_BETA.4
       type="real"
       size="1554"
       columns="4"
       index="4"
       angular_momentum="1"
       cutoff_radius_index=" 172"
       cutoff_radius="    1.7100000000E+00" >
   -1.0095682679E-08    1.8069362804E-03    7.2062317015E-03    1.6133426487E-02
    2.8481364836E-02    4.4100641190E-02    6.2800284264E-02    8.4348733941E-02
    1.0847517618E-01    1.3487130706E-01    1.6319359858E-01    1.9306613555E-01
    2.2408408425E-01    2.5581784039E-01    2.8781788542E-01    3.1962035841E-01
    3.5075332418E-01    3.8074369047E-01    4.0912469627E-01    4.3544386291E-01
    4.5927126955E-01    4.8020798651E-01    4.9789447508E-01    5.1201874210E-01
    5.2232402245E-01    5.2861575439E-01    5.3076761108E-01    5.2872635872E-01
    5.2251532598E-01    5.1223629275E-01    4.9806963716E-01    4.8027261828E-01
    4.5917571754E-01    4.3517701282E-01    4.0873461511E-01    3.8035725637E-01
    3.5059317740E-01    3.2001752449E-01    2.8921852104E-01    2.5878273393E-01
    2.2927980086E-01    2.0124702424E-01    1.7517426538E-01    1.5148958927E-01
    1.3054611386E-01    1.1261050563E-01    9.7853536518E-02    8.6343073886E-02
    7.8039816180E-02    7.2796012569E-02    7.0357316334E-02    7.0367821744E-02
    7.2378224085E-02    7.5856927557E-02    8.0203809311E-02    8.4766236478E-02
    8.8856833748E-02    9.1772421026E-02    9.2813492949E-02    9.1303606619E-02
    8.6608089195E-02    7.8151581570E-02    6.5434102500E-02    4.8045550553E-02
    2.5678861921E-02   -1.8575762975E-03   -3.4627154302E-02   -7.2550083069E-02
   -1.1538329170E-01   -1.6269033012E-01   -2.1379332010E-01   -2.6761108773E-01
   -3.2066844078E-01   -3.7102162063E-01   -4.1777242568E-01   -4.5991782493E-01
   -4.9641362439E-01   -5.2622677042E-01   -5.4837569535E-01   -5.6195467632E-01
   -5.6614066083E-01   -5.6018427459E-01   -5.4339027021E-01   -5.1509549872E-01
   -4.7465345355E-01   -4.2143285487E-01   -3.5483385093E-01   -2.7432092370E-01
   -1.7958471603E-01   -7.0793918167E-02    5.1511272207E-02    1.8643066404E-01
    3.3270185275E-01    4.8871135020E-01    6.5251883202E-01    8.2189338691E-01
    9.9436013757E-01    1.1672553513E+00    1.3377880394E+00    1.5031059817E+00
    1.6603640908E+00    1.8067930440E+00    1.9397661991E+00    2.0568629590E+00
    2.1559269775E+00    2.2351178631E+00    2.2929553232E+00    2.3283549639E+00
    2.3406551961E+00    2.3296349049E+00    2.2955217055E+00    2.2389907628E+00
    2.1611542898E+00    2.0635420032E+00    1.9480729751E+00    1.8170195052E+00
    1.6729638180E+00    1.5187485703E+00    1.3574223123E+00    1.1921811808E+00
    1.0263082012E+00    8.6311163476E-01    7.0586382741E-01    5.5774199296E-01
    4.2177231093E-01    3.0077863671E-01    1.9733703139E-01    1.1373723540E-01
    5.1952158751E-02    1.3620372300E-02    5.7814492026E-05   -4.9221157925E-06
    0.0000000000E+00    0.0000000000E+00    0.0000000000E+00    0.0000000000E+00
    0.0000000000E+00    0.0000000000E+00    0.0000000000E+00    0.0000000000E+00
    0.0000000000E+00    0.0000000000E+00    0.0000000000E+00    0.0000000000E+00
    0.0000000000E+00    0.0000000000E+00    0.0000000000E+00    0.0000000000E+00
    0.0000000000E+00    0.0000000000E+00    0.0000000000E+00    0.0000000000E+00
    0.0000000000E+00    0.0000000000E+00    0.0000000000E+00    0.0000000000E+00
    0.0000000000E+00    0.0000000000E+00    0.0000000000E+00    0.0000000000E+00
    0.0000000000E+00    0.0000000000E+00    0.0000000000E+00    0.0000000000E+00
    0.0000000000E+00    0.0000000000E+00    0.0000000000E+00    0.0000000000E+00
    0.0000000000E+00    0.0000000000E+00    0.0000000000E+00    0.0000000000E+00
 0. 0. 0. 0.
 0. 0. 0. 0.
 0. 0. 0. 0.
 0. 0. 0. 0.
 0. 0. 0. 0.
 0. 0. 0. 0.
 0. 0. 0. 0.
 0. 0. 0. 0.
 0. 0. 0. 0.
 0. 0. 0. 0.
 0. 0. 0. 0.
 0. 0. 0. 0.
 0. 0. 0. 0.
 0. 0. 0. 0.
 0. 0. 0. 0.
 0. 0. 0. 0.
 0. 0. 0. 0.
 0. 0. 0. 0.
 0. 0. 0. 0.
 0. 0. 0. 0.
 0. 0. 0. 0.
 0. 0. 0. 0.
 0. 0. 0. 0.
 0. 0. 0. 0.
 0. 0. 0. 0.
 0. 0. 0. 0.
 0. 0. 0. 0.
 0. 0. 0. 0.
 0. 0. 0. 0.
 0. 0. 0. 0.
 0. 0. 0. 0.
 0. 0. 0. 0.
 0. 0. 0. 0.
 0. 0. 0. 0.
 0. 0. 0. 0.
 0. 0. 0. 0.
 0. 0. 0. 0.
 0. 0. 0. 0.
 0. 0. 0. 0.
 0. 0. 0. 0.
 0. 0. 0. 0.
 0. 0. 0. 0.
 0. 0. 0. 0.
 0. 0. 0. 0.
 0. 0. 0. 0.
 0. 0. 0. 0.
 0. 0. 0. 0.
 0. 0. 0. 0.
 0. 0. 0. 0.
 0. 0. 0. 0.
 0. 0. 0. 0.
 0. 0. 0. 0.
 0. 0. 0. 0.
 0. 0. 0. 0.
 0. 0. 0. 0.
 0. 0. 0. 0.
 0. 0. 0. 0.
 0. 0. 0. 0.
 0. 0. 0. 0.
 0. 0. 0. 0.
 0. 0. 0. 0.
 0. 0. 0. 0.
 0. 0. 0. 0.
 0. 0. 0. 0.
 0. 0. 0. 0.
 0. 0. 0. 0.
 0. 0. 0. 0.
 0. 0. 0. 0.
 0. 0. 0. 0.
 0. 0. 0. 0.
 0. 0. 0. 0.
 0. 0. 0. 0.
 0. 0. 0. 0.
 0. 0. 0. 0.
 0. 0. 0. 0.
 0. 0. 0. 0.
 0. 0. 0. 0.
 0. 0. 0. 0.
 0. 0. 0. 0.
 0. 0. 0. 0.
 0. 0. 0. 0.
 0. 0. 0. 0.
 0. 0. 0. 0.
 0. 0. 0. 0.
 0. 0. 0. 0.
 0. 0. 0. 0.
 0. 0. 0. 0.
 0. 0. 0. 0.
 0. 0. 0. 0.
 0. 0. 0. 0.
 0. 0. 0. 0.
 0. 0. 0. 0.
 0. 0. 0. 0.
 0. 0. 0. 0.
 0. 0. 0. 0.
 0. 0. 0. 0.
 0. 0. 0. 0.
 0. 0. 0. 0.
 0. 0. 0. 0.
 0. 0. 0. 0.
 0. 0. 0. 0.
 0. 0. 0. 0.
 0. 0. 0. 0.
 0. 0. 0. 0.
 0. 0. 0. 0.
 0. 0. 0. 0.
 0. 0. 0. 0.
 0. 0. 0. 0.
 0. 0. 0. 0.
 0. 0. 0. 0.
 0. 0. 0. 0.
 0. 0. 0. 0.
 0. 0. 0. 0.
 0. 0. 0. 0.
 0. 0. 0. 0.
 0. 0. 0. 0.
 0. 0. 0. 0.
 0. 0. 0. 0.
 0. 0. 0. 0.
 0. 0. 0. 0.
 0. 0. 0. 0.
 0. 0. 0. 0.
 0. 0. 0. 0.
 0. 0. 0. 0.
 0. 0. 0. 0.
 0. 0. 0. 0.
 0. 0. 0. 0.
 0. 0. 0. 0.
 0. 0. 0. 0.
 0. 0. 0. 0.
 0. 0. 0. 0.
 0. 0. 0. 0.
 0. 0. 0. 0.
 0. 0. 0. 0.
 0. 0. 0. 0.
 0. 0. 0. 0.
 0. 0. 0. 0.
 0. 0. 0. 0.
 0. 0. 0. 0.
 0. 0. 0. 0.
 0. 0. 0. 0.
 0. 0. 0. 0.
 0. 0. 0. 0.
 0. 0. 0. 0.
 0. 0. 0. 0.
 0. 0. 0. 0.
 0. 0. 0. 0.
 0. 0. 0. 0.
 0. 0. 0. 0.
 0. 0. 0. 0.
 0. 0. 0. 0.
 0. 0. 0. 0.
 0. 0. 0. 0.
 0. 0. 0. 0.
 0. 0. 0. 0.
 0. 0. 0. 0.
 0. 0. 0. 0.
 0. 0. 0. 0.
 0. 0. 0. 0.
 0. 0. 0. 0.
 0. 0. 0. 0.
 0. 0. 0. 0.
 0. 0. 0. 0.
 0. 0. 0. 0.
 0. 0. 0. 0.
 0. 0. 0. 0.
 0. 0. 0. 0.
 0. 0. 0. 0.
 0. 0. 0. 0.
 0. 0. 0. 0.
 0. 0. 0. 0.
 0. 0. 0. 0.
 0. 0. 0. 0.
 0. 0. 0. 0.
 0. 0. 0. 0.
 0. 0. 0. 0.
 0. 0. 0. 0.
 0. 0. 0. 0.
 0. 0. 0. 0.
 0. 0. 0. 0.
 0. 0. 0. 0.
 0. 0. 0. 0.
 0. 0. 0. 0.
 0. 0. 0. 0.
 0. 0. 0. 0.
 0. 0. 0. 0.
 0. 0. 0. 0.
 0. 0. 0. 0.
 0. 0. 0. 0.
 0. 0. 0. 0.
 0. 0. 0. 0.
 0. 0. 0. 0.
 0. 0. 0. 0.
 0. 0. 0. 0.
 0. 0. 0. 0.
 0. 0. 0. 0.
 0. 0. 0. 0.
 0. 0. 0. 0.
 0. 0. 0. 0.
 0. 0. 0. 0.
 0. 0. 0. 0.
 0. 0. 0. 0.
 0. 0. 0. 0.
 0. 0. 0. 0.
 0. 0. 0. 0.
 0. 0. 0. 0.
 0. 0. 0. 0.
 0. 0. 0. 0.
 0. 0. 0. 0.
 0. 0. 0. 0.
 0. 0. 0. 0.
 0. 0. 0. 0.
 0. 0. 0. 0.
 0. 0. 0. 0.
 0. 0. 0. 0.
 0. 0. 0. 0.
 0. 0. 0. 0.
 0. 0. 0. 0.
 0. 0. 0. 0.
 0. 0. 0. 0.
 0. 0. 0. 0.
 0. 0. 0. 0.
 0. 0. 0. 0.
 0. 0. 0. 0.
 0. 0. 0. 0.
 0. 0. 0. 0.
 0. 0. 0. 0.
 0. 0. 0. 0.
 0. 0. 0. 0.
 0. 0. 0. 0.
 0. 0. 0. 0.
 0. 0. 0. 0.
 0. 0. 0. 0.
 0. 0. 0. 0.
 0. 0. 0. 0.
 0. 0. 0. 0.
 0. 0. 0. 0.
 0. 0. 0. 0.
 0. 0. 0. 0.
 0. 0. 0. 0.
 0. 0. 0. 0.
 0. 0. 0. 0.
 0. 0. 0. 0.
 0. 0. 0. 0.
 0. 0. 0. 0.
 0. 0. 0. 0.
 0. 0. 0. 0.
 0. 0. 0. 0.
 0. 0. 0. 0.
 0. 0. 0. 0.
 0. 0. 0. 0.
 0. 0. 0. 0.
 0. 0. 0. 0.
 0. 0. 0. 0.
 0. 0. 0. 0.
 0. 0. 0. 0.
 0. 0. 0. 0.
 0. 0. 0. 0.
 0. 0. 0. 0.
 0. 0. 0. 0.
 0. 0. 0. 0.
 0. 0. 0. 0.
 0. 0. 0. 0.
 0. 0. 0. 0.
 0. 0. 0. 0.
 0. 0. 0. 0.
 0. 0. 0. 0.
 0. 0. 0. 0.
 0. 0. 0. 0.
 0. 0. 0. 0.
 0. 0. 0. 0.
 0. 0. 0. 0.
 0. 0. 0. 0.
 0. 0. 0. 0.
 0. 0. 0. 0.
 0. 0. 0. 0.
 0. 0. 0. 0.
 0. 0. 0. 0.
 0. 0. 0. 0.
 0. 0. 0. 0.
 0. 0. 0. 0.
 0. 0. 0. 0.
 0. 0. 0. 0.
 0. 0. 0. 0.
 0. 0. 0. 0.
 0. 0. 0. 0.
 0. 0. 0. 0.
 0. 0. 0. 0.
 0. 0. 0. 0.
 0. 0. 0. 0.
 0. 0. 0. 0.
 0. 0. 0. 0.
 0. 0. 0. 0.
 0. 0. 0. 0.
 0. 0. 0. 0.
 0. 0. 0. 0.
 0. 0. 0. 0.
 0. 0. 0. 0.
 0. 0. 0. 0.
 0. 0. 0. 0.
 0. 0. 0. 0.
 0. 0. 0. 0.
 0. 0. 0. 0.
 0. 0. 0. 0.
 0. 0. 0. 0.
 0. 0. 0. 0.
 0. 0. 0. 0.
 0. 0. 0. 0.
 0. 0. 0. 0.
 0. 0. 0. 0.
 0. 0. 0. 0.
 0. 0. 0. 0.
 0. 0. 0. 0.
 0. 0. 0. 0.
 0. 0. 0. 0.
 0. 0. 0. 0.
 0. 0. 0. 0.
 0. 0. 0. 0.
 0. 0. 0. 0.
 0. 0. 0. 0.
 0. 0. 0. 0.
 0. 0. 0. 0.
 0. 0. 0. 0.
 0. 0. 0. 0.
 0. 0. 0. 0.
 0. 0. 0. 0.
 0. 0. 0. 0.
 0. 0. 0. 0.
 0. 0. 0. 0.
 0. 0. 0. 0.
 0. 0. 0. 0.
 0. 0. 0. 0.
 0. 0. 0. 0.
 0. 0. 0. 0.
 0. 0. 0. 0.
 0. 0. 0. 0.
 0. 0. 0. 0.
 0. 0. 0. 0.
 0. 0. 0. 0.
 0. 0. 0. 0.
 0. 0. 0. 0.
 0. 0. 0. 0.
 0. 0. 0. 0.
 0. 0. 0. 0.
 0. 0. 0. 0.
 0. 0.
   </PP_BETA.4>
   <PP_BETA.5
       type="real"
       size="1554"
       columns="4"
       index="5"
       angular_momentum="2"
       cutoff_radius_index=" 172"
       cutoff_radius="    1.7100000000E+00" >
   -1.9784964847E-09    1.8749279564E-05    1.5001657119E-04    5.0642740174E-04
    1.2008030380E-03    2.3462106564E-03    4.0559577272E-03    6.4435144066E-03
    9.6223497103E-03    1.3705669623E-02    1.8806048042E-02    2.5034944482E-02
    3.2502105713E-02    4.1314851897E-02    5.1577251254E-02    6.3389190713E-02
    7.6845353356E-02    9.2034116618E-02    1.0903638811E-01    1.2792439850E-01
    1.4876047305E-01    1.7159580525E-01    1.9646925690E-01    2.2340621022E-01
    2.5241749717E-01    2.8349843098E-01    3.1662796404E-01    3.5176799448E-01
    3.8886284182E-01    4.2783890967E-01    4.6860455017E-01    5.1105014181E-01
    5.5504838843E-01    6.0045484331E-01    6.4710865823E-01    6.9483355313E-01
    7.4343899794E-01    7.9272159381E-01    8.4246663706E-01    8.9244984539E-01
    9.4243922193E-01    9.9219702975E-01    1.0414818462E+00    1.0900506639E+00
    1.1376610031E+00    1.1840729991E+00    1.2290514262E+00    1.2723676222E+00
    1.3138012762E+00    1.3531420458E+00    1.3901909745E+00    1.4247616841E+00
    1.4566813248E+00    1.4857912748E+00    1.5119475920E+00    1.5350212334E+00
    1.5548980700E+00    1.5714787430E+00    1.5846784149E+00    1.5944264864E+00
    1.6006663521E+00    1.6033552686E+00    1.6024643985E+00    1.5979790688E+00
    1.5898992423E+00    1.5782401447E+00    1.5630329052E+00    1.5443249572E+00
    1.5221797783E+00    1.4966752938E+00    1.4678998619E+00    1.4359385655E+00
    1.4007182488E+00    1.3622448858E+00    1.3206151486E+00    1.2759453264E+00
    1.2283738417E+00    1.1780632753E+00    1.1252014082E+00    1.0700004583E+00
    1.0126938796E+00    9.5353046430E-01    8.9276602911E-01    8.3065354240E-01
    7.6743298226E-01    7.0332234100E-01    6.3851093277E-01    5.7315565620E-01
    5.0739500005E-01    4.4137999455E-01    3.7526424293E-01    3.0920494294E-01
    2.4336660529E-01    1.7792408697E-01    1.1306473000E-01    4.8989519353E-02
   -1.4086737764E-02   -7.5936152938E-02   -1.3631932299E-01   -1.9498760098E-01
   -2.5168593192E-01   -3.0615610131E-01   -3.5814024187E-01   -4.0738445230E-01
   -4.5364240038E-01   -4.9667880915E-01   -5.3627275442E-01   -5.7222072921E-01
   -6.0433945186E-01   -6.3246840921E-01   -6.5647213223E-01   -6.7624220211E-01
   -6.9169898227E-01   -7.0279306909E-01   -7.0950645272E-01   -7.1185338052E-01
   -7.0988091854E-01   -7.0366921094E-01   -6.9333144129E-01   -6.7901350369E-01
   -6.6089339404E-01   -6.3918033283E-01   -6.1411363154E-01   -5.8596131584E-01
   -5.5501852285E-01   -5.2160569943E-01   -4.8606664962E-01   -4.4876651787E-01
   -4.1008986257E-01   -3.7043909917E-01   -3.3023365758E-01   -2.8991991662E-01
   -2.4992367032E-01   -2.1063341284E-01   -1.7242087246E-01   -1.3563643103E-01
   -1.0060482613E-01   -6.7621161597E-02   -3.6947301403E-02   -8.8087030592E-03
    1.6608259254E-02    3.9158438511E-02    5.8739489889E-02    7.5292849311E-02
    8.8804096469E-02    9.9302691970E-02    1.0686108725E-01    1.1159321472E-01
    1.1365237414E-01    1.1322853969E-01    1.1054511935E-01    1.0585520590E-01
    9.9437364397E-02    9.1591006889E-02    8.2631409533E-02    7.2884431369E-02
    6.2680997100E-02    5.2351409944E-02    4.2219563104E-02    3.2597122855E-02
    2.3777760258E-02    1.6031515286E-02    9.5993834043E-03    4.6882260643E-03
    1.4666622823E-03    6.8934958219E-05    3.3351228466E-06   -8.2603982587E-11
    0.0000000000E+00    0.0000000000E+00    0.0000000000E+00    0.0000000000E+00
 0. 0. 0. 0.
 0. 0. 0. 0.
 0. 0. 0. 0.
 0. 0. 0. 0.
 0. 0. 0. 0.
 0. 0. 0. 0.
 0. 0. 0. 0.
 0. 0. 0. 0.
 0. 0. 0. 0.
 0. 0. 0. 0.
 0. 0. 0. 0.
 0. 0. 0. 0.
 0. 0. 0. 0.
 0. 0. 0. 0.
 0. 0. 0. 0.
 0. 0. 0. 0.
 0. 0. 0. 0.
 0. 0. 0. 0.
 0. 0. 0. 0.
 0. 0. 0. 0.
 0. 0. 0. 0.
 0. 0. 0. 0.
 0. 0. 0. 0.
 0. 0. 0. 0.
 0. 0. 0. 0.
 0. 0. 0. 0.
 0. 0. 0. 0.
 0. 0. 0. 0.
 0. 0. 0. 0.
 0. 0. 0. 0.
 0. 0. 0. 0.
 0. 0. 0. 0.
 0. 0. 0. 0.
 0. 0. 0. 0.
 0. 0. 0. 0.
 0. 0. 0. 0.
 0. 0. 0. 0.
 0. 0. 0. 0.
 0. 0. 0. 0.
 0. 0. 0. 0.
 0. 0. 0. 0.
 0. 0. 0. 0.
 0. 0. 0. 0.
 0. 0. 0. 0.
 0. 0. 0. 0.
 0. 0. 0. 0.
 0. 0. 0. 0.
 0. 0. 0. 0.
 0. 0. 0. 0.
 0. 0. 0. 0.
 0. 0. 0. 0.
 0. 0. 0. 0.
 0. 0. 0. 0.
 0. 0. 0. 0.
 0. 0. 0. 0.
 0. 0. 0. 0.
 0. 0. 0. 0.
 0. 0. 0. 0.
 0. 0. 0. 0.
 0. 0. 0. 0.
 0. 0. 0. 0.
 0. 0. 0. 0.
 0. 0. 0. 0.
 0. 0. 0. 0.
 0. 0. 0. 0.
 0. 0. 0. 0.
 0. 0. 0. 0.
 0. 0. 0. 0.
 0. 0. 0. 0.
 0. 0. 0. 0.
 0. 0. 0. 0.
 0. 0. 0. 0.
 0. 0. 0. 0.
 0. 0. 0. 0.
 0. 0. 0. 0.
 0. 0. 0. 0.
 0. 0. 0. 0.
 0. 0. 0. 0.
 0. 0. 0. 0.
 0. 0. 0. 0.
 0. 0. 0. 0.
 0. 0. 0. 0.
 0. 0. 0. 0.
 0. 0. 0. 0.
 0. 0. 0. 0.
 0. 0. 0. 0.
 0. 0. 0. 0.
 0. 0. 0. 0.
 0. 0. 0. 0.
 0. 0. 0. 0.
 0. 0. 0. 0.
 0. 0. 0. 0.
 0. 0. 0. 0.
 0. 0. 0. 0.
 0. 0. 0. 0.
 0. 0. 0. 0.
 0. 0. 0. 0.
 0. 0. 0. 0.
 0. 0. 0. 0.
 0. 0. 0. 0.
 0. 0. 0. 0.
 0. 0. 0. 0.
 0. 0. 0. 0.
 0. 0. 0. 0.
 0. 0. 0. 0.
 0. 0. 0. 0.
 0. 0. 0. 0.
 0. 0. 0. 0.
 0. 0. 0. 0.
 0. 0. 0. 0.
 0. 0. 0. 0.
 0. 0. 0. 0.
 0. 0. 0. 0.
 0. 0. 0. 0.
 0. 0. 0. 0.
 0. 0. 0. 0.
 0. 0. 0. 0.
 0. 0. 0. 0.
 0. 0. 0. 0.
 0. 0. 0. 0.
 0. 0. 0. 0.
 0. 0. 0. 0.
 0. 0. 0. 0.
 0. 0. 0. 0.
 0. 0. 0. 0.
 0. 0. 0. 0.
 0. 0. 0. 0.
 0. 0. 0. 0.
 0. 0. 0. 0.
 0. 0. 0. 0.
 0. 0. 0. 0.
 0. 0. 0. 0.
 0. 0. 0. 0.
 0. 0. 0. 0.
 0. 0. 0. 0.
 0. 0. 0. 0.
 0. 0. 0. 0.
 0. 0. 0. 0.
 0. 0. 0. 0.
 0. 0. 0. 0.
 0. 0. 0. 0.
 0. 0. 0. 0.
 0. 0. 0. 0.
 0. 0. 0. 0.
 0. 0. 0. 0.
 0. 0. 0. 0.
 0. 0. 0. 0.
 0. 0. 0. 0.
 0. 0. 0. 0.
 0. 0. 0. 0.
 0. 0. 0. 0.
 0. 0. 0. 0.
 0. 0. 0. 0.
 0. 0. 0. 0.
 0. 0. 0. 0.
 0. 0. 0. 0.
 0. 0. 0. 0.
 0. 0. 0. 0.
 0. 0. 0. 0.
 0. 0. 0. 0.
 0. 0. 0. 0.
 0. 0. 0. 0.
 0. 0. 0. 0.
 0. 0. 0. 0.
 0. 0. 0. 0.
 0. 0. 0. 0.
 0. 0. 0. 0.
 0. 0. 0. 0.
 0. 0. 0. 0.
 0. 0. 0. 0.
 0. 0. 0. 0.
 0. 0. 0. 0.
 0. 0. 0. 0.
 0. 0. 0. 0.
 0. 0. 0. 0.
 0. 0. 0. 0.
 0. 0. 0. 0.
 0. 0. 0. 0.
 0. 0. 0. 0.
 0. 0. 0. 0.
 0. 0. 0. 0.
 0. 0. 0. 0.
 0. 0. 0. 0.
 0. 0. 0. 0.
 0. 0. 0. 0.
 0. 0. 0. 0.
 0. 0. 0. 0.
 0. 0. 0. 0.
 0. 0. 0. 0.
 0. 0. 0. 0.
 0. 0. 0. 0.
 0. 0. 0. 0.
 0. 0. 0. 0.
 0. 0. 0. 0.
 0. 0. 0. 0.
 0. 0. 0. 0.
 0. 0. 0. 0.
 0. 0. 0. 0.
 0. 0. 0. 0.
 0. 0. 0. 0.
 0. 0. 0. 0.
 0. 0. 0. 0.
 0. 0. 0. 0.
 0. 0. 0. 0.
 0. 0. 0. 0.
 0. 0. 0. 0.
 0. 0. 0. 0.
 0. 0. 0. 0.
 0. 0. 0. 0.
 0. 0. 0. 0.
 0. 0. 0. 0.
 0. 0. 0. 0.
 0. 0. 0. 0.
 0. 0. 0. 0.
 0. 0. 0. 0.
 0. 0. 0. 0.
 0. 0. 0. 0.
 0. 0. 0. 0.
 0. 0. 0. 0.
 0. 0. 0. 0.
 0. 0. 0. 0.
 0. 0. 0. 0.
 0. 0. 0. 0.
 0. 0. 0. 0.
 0. 0. 0. 0.
 0. 0. 0. 0.
 0. 0. 0. 0.
 0. 0. 0. 0.
 0. 0. 0. 0.
 0. 0. 0. 0.
 0. 0. 0. 0.
 0. 0. 0. 0.
 0. 0. 0. 0.
 0. 0. 0. 0.
 0. 0. 0. 0.
 0. 0. 0. 0.
 0. 0. 0. 0.
 0. 0. 0. 0.
 0. 0. 0. 0.
 0. 0. 0. 0.
 0. 0. 0. 0.
 0. 0. 0. 0.
 0. 0. 0. 0.
 0. 0. 0. 0.
 0. 0. 0. 0.
 0. 0. 0. 0.
 0. 0. 0. 0.
 0. 0. 0. 0.
 0. 0. 0. 0.
 0. 0. 0. 0.
 0. 0. 0. 0.
 0. 0. 0. 0.
 0. 0. 0. 0.
 0. 0. 0. 0.
 0. 0. 0. 0.
 0. 0. 0. 0.
 0. 0. 0. 0.
 0. 0. 0. 0.
 0. 0. 0. 0.
 0. 0. 0. 0.
 0. 0. 0. 0.
 0. 0. 0. 0.
 0. 0. 0. 0.
 0. 0. 0. 0.
 0. 0. 0. 0.
 0. 0. 0. 0.
 0. 0. 0. 0.
 0. 0. 0. 0.
 0. 0. 0. 0.
 0. 0. 0. 0.
 0. 0. 0. 0.
 0. 0. 0. 0.
 0. 0. 0. 0.
 0. 0. 0. 0.
 0. 0. 0. 0.
 0. 0. 0. 0.
 0. 0. 0. 0.
 0. 0. 0. 0.
 0. 0. 0. 0.
 0. 0. 0. 0.
 0. 0. 0. 0.
 0. 0. 0. 0.
 0. 0. 0. 0.
 0. 0. 0. 0.
 0. 0. 0. 0.
 0. 0. 0. 0.
 0. 0. 0. 0.
 0. 0. 0. 0.
 0. 0. 0. 0.
 0. 0. 0. 0.
 0. 0. 0. 0.
 0. 0. 0. 0.
 0. 0. 0. 0.
 0. 0. 0. 0.
 0. 0. 0. 0.
 0. 0. 0. 0.
 0. 0. 0. 0.
 0. 0. 0. 0.
 0. 0. 0. 0.
 0. 0. 0. 0.
 0. 0. 0. 0.
 0. 0. 0. 0.
 0. 0. 0. 0.
 0. 0. 0. 0.
 0. 0. 0. 0.
 0. 0. 0. 0.
 0. 0. 0. 0.
 0. 0. 0. 0.
 0. 0. 0. 0.
 0. 0. 0. 0.
 0. 0. 0. 0.
 0. 0. 0. 0.
 0. 0. 0. 0.
 0. 0. 0. 0.
 0. 0. 0. 0.
 0. 0. 0. 0.
 0. 0. 0. 0.
 0. 0. 0. 0.
 0. 0. 0. 0.
 0. 0. 0. 0.
 0. 0. 0. 0.
 0. 0. 0. 0.
 0. 0. 0. 0.
 0. 0. 0. 0.
 0. 0. 0. 0.
 0. 0. 0. 0.
 0. 0. 0. 0.
 0. 0. 0. 0.
 0. 0. 0. 0.
 0. 0. 0. 0.
 0. 0. 0. 0.
 0. 0. 0. 0.
 0. 0. 0. 0.
 0. 0. 0. 0.
 0. 0. 0. 0.
 0. 0. 0. 0.
 0. 0. 0. 0.
 0. 0. 0. 0.
 0. 0. 0. 0.
 0. 0. 0. 0.
 0. 0. 0. 0.
 0. 0. 0. 0.
 0. 0. 0. 0.
 0. 0. 0. 0.
 0. 0. 0. 0.
 0. 0.
   </PP_BETA.5>
   <PP_BETA.6
       type="real"
       size="1554"
       columns="4"
       index="6"
       angular_momentum="2"
       cutoff_radius_index=" 172"
       cutoff_radius="    1.7100000000E+00" >
    3.2102448998E-09   -2.9293916550E-06   -2.3597026635E-05   -8.0543563361E-05
   -1.9388177173E-04   -3.8600164293E-04   -6.8218072702E-04   -1.1110719875E-03
   -1.7050446724E-03   -2.5003575747E-03   -3.5371484985E-03   -4.8592286624E-03
   -6.5136760399E-03   -8.5502271391E-03   -1.1020472325E-02   -1.3976865363E-02
   -1.7471563271E-02   -2.1555117685E-02   -2.6275043637E-02   -3.1674295822E-02
   -3.7789685922E-02   -4.4650277400E-02   -5.2275796104E-02   -6.0675096188E-02
   -6.9844721047E-02   -7.9767598269E-02   -9.0411905974E-02   -1.0173014538E-01
   -1.1365845103E-01   -1.2611616601E-01   -1.3900570440E-01   -1.5221271795E-01
   -1.6560657758E-01   -1.7904117418E-01   -1.9235603620E-01   -2.0537775482E-01
   -2.1792170050E-01   -2.2979400809E-01   -2.4079380103E-01   -2.5071561933E-01
   -2.5935201047E-01   -2.6649623737E-01   -2.7194505409E-01   -2.7550149659E-01
   -2.7697763441E-01   -2.7619722860E-01   -2.7299824241E-01   -2.6723515372E-01
   -2.5878102277E-01   -2.4752927492E-01   -2.3339516601E-01   -2.1631690781E-01
   -1.9625644224E-01   -1.7319986571E-01   -1.4715751831E-01   -1.1816376596E-01
   -8.6276516422E-02   -5.1576520069E-02   -1.4166513184E-02    2.5829738088E-02
    6.8268441715E-02    1.1298679675E-01    1.5980401541E-01    2.0852238066E-01
    2.5892841966E-01    3.1079433602E-01    3.6387992314E-01    4.1793528932E-01
    4.7270488662E-01    5.2793359750E-01    5.8337606187E-01    6.3882200771E-01
    6.9436711735E-01    7.4990620738E-01    8.0518769709E-01    8.5996794881E-01
    9.1400853997E-01    9.6707509480E-01    1.0189378072E+00    1.0693742021E+00
    1.1181742871E+00    1.1651477157E+00    1.2101320184E+00    1.2530004986E+00
    1.2936682429E+00    1.3320949468E+00    1.3682838911E+00    1.4022771438E+00
    1.4341308995E+00    1.4638768975E+00    1.4915347157E+00    1.5171096388E+00
    1.5405878957E+00    1.5619332630E+00    1.5810850935E+00    1.5979577008E+00
    1.6124409679E+00    1.6244020154E+00    1.6336877611E+00    1.6401282020E+00
    1.6435402553E+00    1.6437320006E+00    1.6405071817E+00    1.6336698421E+00
    1.6230289926E+00    1.6084032375E+00    1.5896253048E+00    1.5665464462E+00
    1.5390406795E+00    1.5070088501E+00    1.4703824800E+00    1.4291273678E+00
    1.3832468915E+00    1.3327849604E+00    1.2778285569E+00    1.2185098103E+00
    1.1550075444E+00    1.0875482491E+00    1.0164064279E+00    9.4190428464E-01
    8.6441071992E-01    7.8433961686E-01    7.0214740964E-01    6.1832994175E-01
    5.3341863934E-01    4.4797604834E-01    3.6259081341E-01    2.7787221664E-01
    1.9444444876E-01    1.1294087221E-01    3.3998574353E-02   -4.1740298745E-02
   -1.1366898945E-01   -1.8123342999E-01   -2.4392238311E-01   -3.0127471018E-01
   -3.5288611977E-01   -3.9841531104E-01   -4.3758939491E-01   -4.7020849407E-01
   -4.9614943396E-01   -5.1536844871E-01   -5.2790284012E-01   -5.3387154160E-01
   -5.3347455528E-01   -5.2699124572E-01   -5.1477749019E-01   -4.9726170166E-01
   -4.7493975633E-01   -4.4836887294E-01   -4.1816050492E-01   -3.8497232069E-01
   -3.4949935805E-01   -3.1246445051E-01   -2.7460803181E-01   -2.3667743385E-01
   -1.9941579952E-01   -1.6355074020E-01   -1.2978287314E-01   -9.8774383378E-02
   -7.1137762760E-02   -4.7424892213E-02   -2.8116644346E-02   -1.3613204783E-02
   -4.2268849193E-03   -1.9733909441E-04   -9.5465077494E-06    1.6941796542E-10
    0.0000000000E+00    0.0000000000E+00    0.0000000000E+00    0.0000000000E+00
 0. 0. 0. 0.
 0. 0. 0. 0.
 0. 0. 0. 0.
 0. 0. 0. 0.
 0. 0. 0. 0.
 0. 0. 0. 0.
 0. 0. 0. 0.
 0. 0. 0. 0.
 0. 0. 0. 0.
 0. 0. 0. 0.
 0. 0. 0. 0.
 0. 0. 0. 0.
 0. 0. 0. 0.
 0. 0. 0. 0.
 0. 0. 0. 0.
 0. 0. 0. 0.
 0. 0. 0. 0.
 0. 0. 0. 0.
 0. 0. 0. 0.
 0. 0. 0. 0.
 0. 0. 0. 0.
 0. 0. 0. 0.
 0. 0. 0. 0.
 0. 0. 0. 0.
 0. 0. 0. 0.
 0. 0. 0. 0.
 0. 0. 0. 0.
 0. 0. 0. 0.
 0. 0. 0. 0.
 0. 0. 0. 0.
 0. 0. 0. 0.
 0. 0. 0. 0.
 0. 0. 0. 0.
 0. 0. 0. 0.
 0. 0. 0. 0.
 0. 0. 0. 0.
 0. 0. 0. 0.
 0. 0. 0. 0.
 0. 0. 0. 0.
 0. 0. 0. 0.
 0. 0. 0. 0.
 0. 0. 0. 0.
 0. 0. 0. 0.
 0. 0. 0. 0.
 0. 0. 0. 0.
 0. 0. 0. 0.
 0. 0. 0. 0.
 0. 0. 0. 0.
 0. 0. 0. 0.
 0. 0. 0. 0.
 0. 0. 0. 0.
 0. 0. 0. 0.
 0. 0. 0. 0.
 0. 0. 0. 0.
 0. 0. 0. 0.
 0. 0. 0. 0.
 0. 0. 0. 0.
 0. 0. 0. 0.
 0. 0. 0. 0.
 0. 0. 0. 0.
 0. 0. 0. 0.
 0. 0. 0. 0.
 0. 0. 0. 0.
 0. 0. 0. 0.
 0. 0. 0. 0.
 0. 0. 0. 0.
 0. 0. 0. 0.
 0. 0. 0. 0.
 0. 0. 0. 0.
 0. 0. 0. 0.
 0. 0. 0. 0.
 0. 0. 0. 0.
 0. 0. 0. 0.
 0. 0. 0. 0.
 0. 0. 0. 0.
 0. 0. 0. 0.
 0. 0. 0. 0.
 0. 0. 0. 0.
 0. 0. 0. 0.
 0. 0. 0. 0.
 0. 0. 0. 0.
 0. 0. 0. 0.
 0. 0. 0. 0.
 0. 0. 0. 0.
 0. 0. 0. 0.
 0. 0. 0. 0.
 0. 0. 0. 0.
 0. 0. 0. 0.
 0. 0. 0. 0.
 0. 0. 0. 0.
 0. 0. 0. 0.
 0. 0. 0. 0.
 0. 0. 0. 0.
 0. 0. 0. 0.
 0. 0. 0. 0.
 0. 0. 0. 0.
 0. 0. 0. 0.
 0. 0. 0. 0.
 0. 0. 0. 0.
 0. 0. 0. 0.
 0. 0. 0. 0.
 0. 0. 0. 0.
 0. 0. 0. 0.
 0. 0. 0. 0.
 0. 0. 0. 0.
 0. 0. 0. 0.
 0. 0. 0. 0.
 0. 0. 0. 0.
 0. 0. 0. 0.
 0. 0. 0. 0.
 0. 0. 0. 0.
 0. 0. 0. 0.
 0. 0. 0. 0.
 0. 0. 0. 0.
 0. 0. 0. 0.
 0. 0. 0. 0.
 0. 0. 0. 0.
 0. 0. 0. 0.
 0. 0. 0. 0.
 0. 0. 0. 0.
 0. 0. 0. 0.
 0. 0. 0. 0.
 0. 0. 0. 0.
 0. 0. 0. 0.
 0. 0. 0. 0.
 0. 0. 0. 0.
 0. 0. 0. 0.
 0. 0. 0. 0.
 0. 0. 0. 0.
 0. 0. 0. 0.
 0. 0. 0. 0.
 0. 0. 0. 0.
 0. 0. 0. 0.
 0. 0. 0. 0.
 0. 0. 0. 0.
 0. 0. 0. 0.
 0. 0. 0. 0.
 0. 0. 0. 0.
 0. 0. 0. 0.
 0. 0. 0. 0.
 0. 0. 0. 0.
 0. 0. 0. 0.
 0. 0. 0. 0.
 0. 0. 0. 0.
 0. 0. 0. 0.
 0. 0. 0. 0.
 0. 0. 0. 0.
 0. 0. 0. 0.
 0. 0. 0. 0.
 0. 0. 0. 0.
 0. 0. 0. 0.
 0. 0. 0. 0.
 0. 0. 0. 0.
 0. 0. 0. 0.
 0. 0. 0. 0.
 0. 0. 0. 0.
 0. 0. 0. 0.
 0. 0. 0. 0.
 0. 0. 0. 0.
 0. 0. 0. 0.
 0. 0. 0. 0.
 0. 0. 0. 0.
 0. 0. 0. 0.
 0. 0. 0. 0.
 0. 0. 0. 0.
 0. 0. 0. 0.
 0. 0. 0. 0.
 0. 0. 0. 0.
 0. 0. 0. 0.
 0. 0. 0. 0.
 0. 0. 0. 0.
 0. 0. 0. 0.
 0. 0. 0. 0.
 0. 0. 0. 0.
 0. 0. 0. 0.
 0. 0. 0. 0.
 0. 0. 0. 0.
 0. 0. 0. 0.
 0. 0. 0. 0.
 0. 0. 0. 0.
 0. 0. 0. 0.
 0. 0. 0. 0.
 0. 0. 0. 0.
 0. 0. 0. 0.
 0. 0. 0. 0.
 0. 0. 0. 0.
 0. 0. 0. 0.
 0. 0. 0. 0.
 0. 0. 0. 0.
 0. 0. 0. 0.
 0. 0. 0. 0.
 0. 0. 0. 0.
 0. 0. 0. 0.
 0. 0. 0. 0.
 0. 0. 0. 0.
 0. 0. 0. 0.
 0. 0. 0. 0.
 0. 0. 0. 0.
 0. 0. 0. 0.
 0. 0. 0. 0.
 0. 0. 0. 0.
 0. 0. 0. 0.
 0. 0. 0. 0.
 0. 0. 0. 0.
 0. 0. 0. 0.
 0. 0. 0. 0.
 0. 0. 0. 0.
 0. 0. 0. 0.
 0. 0. 0. 0.
 0. 0. 0. 0.
 0. 0. 0. 0.
 0. 0. 0. 0.
 0. 0. 0. 0.
 0. 0. 0. 0.
 0. 0. 0. 0.
 0. 0. 0. 0.
 0. 0. 0. 0.
 0. 0. 0. 0.
 0. 0. 0. 0.
 0. 0. 0. 0.
 0. 0. 0. 0.
 0. 0. 0. 0.
 0. 0. 0. 0.
 0. 0. 0. 0.
 0. 0. 0. 0.
 0. 0. 0. 0.
 0. 0. 0. 0.
 0. 0. 0. 0.
 0. 0. 0. 0.
 0. 0. 0. 0.
 0. 0. 0. 0.
 0. 0. 0. 0.
 0. 0. 0. 0.
 0. 0. 0. 0.
 0. 0. 0. 0.
 0. 0. 0. 0.
 0. 0. 0. 0.
 0. 0. 0. 0.
 0. 0. 0. 0.
 0. 0. 0. 0.
 0. 0. 0. 0.
 0. 0. 0. 0.
 0. 0. 0. 0.
 0. 0. 0. 0.
 0. 0. 0. 0.
 0. 0. 0. 0.
 0. 0. 0. 0.
 0. 0. 0. 0.
 0. 0. 0. 0.
 0. 0. 0. 0.
 0. 0. 0. 0.
 0. 0. 0. 0.
 0. 0. 0. 0.
 0. 0. 0. 0.
 0. 0. 0. 0.
 0. 0. 0. 0.
 0. 0. 0. 0.
 0. 0. 0. 0.
 0. 0. 0. 0.
 0. 0. 0. 0.
 0. 0. 0. 0.
 0. 0. 0. 0.
 0. 0. 0. 0.
 0. 0. 0. 0.
 0. 0. 0. 0.
 0. 0. 0. 0.
 0. 0. 0. 0.
 0. 0. 0. 0.
 0. 0. 0. 0.
 0. 0. 0. 0.
 0. 0. 0. 0.
 0. 0. 0. 0.
 0. 0. 0. 0.
 0. 0. 0. 0.
 0. 0. 0. 0.
 0. 0. 0. 0.
 0. 0. 0. 0.
 0. 0. 0. 0.
 0. 0. 0. 0.
 0. 0. 0. 0.
 0. 0. 0. 0.
 0. 0. 0. 0.
 0. 0. 0. 0.
 0. 0. 0. 0.
 0. 0. 0. 0.
 0. 0. 0. 0.
 0. 0. 0. 0.
 0. 0. 0. 0.
 0. 0. 0. 0.
 0. 0. 0. 0.
 0. 0. 0. 0.
 0. 0. 0. 0.
 0. 0. 0. 0.
 0. 0. 0. 0.
 0. 0. 0. 0.
 0. 0. 0. 0.
 0. 0. 0. 0.
 0. 0. 0. 0.
 0. 0. 0. 0.
 0. 0. 0. 0.
 0. 0. 0. 0.
 0. 0. 0. 0.
 0. 0. 0. 0.
 0. 0. 0. 0.
 0. 0. 0. 0.
 0. 0. 0. 0.
 0. 0. 0. 0.
 0. 0. 0. 0.
 0. 0. 0. 0.
 0. 0. 0. 0.
 0. 0. 0. 0.
 0. 0. 0. 0.
 0. 0. 0. 0.
 0. 0. 0. 0.
 0. 0. 0. 0.
 0. 0. 0. 0.
 0. 0. 0. 0.
 0. 0. 0. 0.
 0. 0. 0. 0.
 0. 0. 0. 0.
 0. 0. 0. 0.
 0. 0. 0. 0.
 0. 0. 0. 0.
 0. 0. 0. 0.
 0. 0. 0. 0.
 0. 0. 0. 0.
 0. 0. 0. 0.
 0. 0. 0. 0.
 0. 0. 0. 0.
 0. 0. 0. 0.
 0. 0. 0. 0.
 0. 0. 0. 0.
 0. 0. 0. 0.
 0. 0. 0. 0.
 0. 0. 0. 0.
 0. 0. 0. 0.
 0. 0. 0. 0.
 0. 0. 0. 0.
 0. 0. 0. 0.
 0. 0. 0. 0.
 0. 0. 0. 0.
 0. 0. 0. 0.
 0. 0. 0. 0.
 0. 0. 0. 0.
 0. 0. 0. 0.
 0. 0.
   </PP_BETA.6>
   <PP_DIJ type="real"  size="  36" columns="4">
    2.2836904750E+01    0.0000000000E+00    0.0000000000E+00    0.0000000000E+00
    0.0000000000E+00    0.0000000000E+00    0.0000000000E+00    2.3877984921E+00
    0.0000000000E+00    0.0000000000E+00    0.0000000000E+00    0.0000000000E+00
    0.0000000000E+00    0.0000000000E+00    4.2897929437E+00    0.0000000000E+00
    0.0000000000E+00    0.0000000000E+00    0.0000000000E+00    0.0000000000E+00
    0.0000000000E+00   -1.7221847365E-01    0.0000000000E+00    0.0000000000E+00
    0.0000000000E+00    0.0000000000E+00    0.0000000000E+00    0.0000000000E+00
   -1.0303628828E+01    0.0000000000E+00    0.0000000000E+00    0.0000000000E+00
    0.0000000000E+00    0.0000000000E+00    0.0000000000E+00   -2.8827461359E+00
   </PP_DIJ>
 </PP_NONLOCAL>
 <PP_PSWFC>
   <PP_CHI.1
       type="real"
       size="1554"
       columns="4"
       index="1"
       occupation=" 2.000"
       pseudo_energy="   -0.4778311615E+01"
       label="3S"
       l="0" >
    1.7519458106E-12    9.2324731877E-03    1.8483815502E-02    2.7772814821E-02
    3.7118096815E-02    4.6538044544E-02    5.6050718914E-02    6.5673780254E-02
    7.5424411309E-02    8.5319241916E-02    9.5374275630E-02    1.0560481860E-01
    1.1602541090E-01    1.2664976069E-01    1.3749068128E-01    1.4856003155E-01
    1.5986865983E-01    1.7142635148E-01    1.8324178046E-01    1.9532246506E-01
    2.0767472794E-01    2.2030366077E-01    2.3321309354E-01    2.4640556869E-01
    2.5988232035E-01    2.7364325856E-01    2.8768695874E-01    3.0201065647E-01
    3.1661024753E-01    3.3148029333E-01    3.4661403170E-01    3.6200339296E-01
    3.7763902137E-01    3.9351030167E-01    4.0960539083E-01    4.2591125476E-01
    4.4241370980E-01    4.5909746893E-01    4.7594619239E-01    4.9294254257E-01
    5.1006824280E-01    5.2730413991E-01    5.4463027019E-01    5.6202592838E-01
    5.7946973954E-01    5.9693973324E-01    6.1441341988E-01    6.3186786870E-01
    6.4927978713E-01    6.6662560104E-01    6.8388153563E-01    7.0102369642E-01
    7.1802815013E-01    7.3487100489E-01    7.5152848962E-01    7.6797703198E-01
    7.8419333478E-01    8.0015445039E-01    8.1583785281E-01    8.3122150722E-01
    8.4628393665E-01    8.6100428551E-01    8.7536237988E-01    8.8933878415E-01
    9.0291485405E-01    9.1607278575E-01    9.2879566105E-01    9.4106748840E-01
    9.5287323990E-01    9.6419888396E-01    9.7503141385E-01    9.8535887203E-01
    9.9517037008E-01    1.0044561044E+00    1.0132073679E+00    1.0214165578E+00
    1.0290771799E+00    1.0361838488E+00    1.0427322847E+00    1.0487193066E+00
    1.0541428226E+00    1.0590018164E+00    1.0632963314E+00    1.0670274519E+00
    1.0701972811E+00    1.0728089176E+00    1.0748664288E+00    1.0763748222E+00
    1.0773400149E+00    1.0777688017E+00    1.0776688205E+00    1.0770485175E+00
    1.0759171102E+00    1.0742845497E+00    1.0721614816E+00    1.0695592063E+00
    1.0664896383E+00    1.0629652651E+00    1.0589991050E+00    1.0546046647E+00
    1.0497958969E+00    1.0445871566E+00    1.0389931579E+00    1.0330289305E+00
    1.0267097761E+00    1.0200512243E+00    1.0130689892E+00    1.0057789260E+00
    9.9819698695E-01    9.9033917912E-01    9.8222152096E-01    9.7386000027E-01
    9.6527053232E-01    9.5646891863E-01    9.4747080652E-01    9.3829164937E-01
    9.2894666791E-01    9.1945081242E-01    9.0981872612E-01    9.0006470980E-01
    8.9020268780E-01    8.8024617543E-01    8.7020824801E-01    8.6010151163E-01
    8.4993807566E-01    8.3972952717E-01    8.2948690746E-01    8.1922069057E-01
    8.0894076408E-01    7.9865641214E-01    7.8837630089E-01    7.7810846623E-01
    7.6786030407E-01    7.5763856311E-01    7.4744934023E-01    7.3729807848E-01
    7.2718957489E-01    7.1712812279E-01    7.0711773695E-01    6.9716219558E-01
    6.8726504927E-01    6.7742962946E-01    6.6765905672E-01    6.5795624884E-01
    6.4832392874E-01    6.3876463212E-01    6.2928071504E-01    6.1987436120E-01
    6.1054758917E-01    6.0130225941E-01    5.9214008113E-01    5.8306261910E-01
    5.7407130022E-01    5.6516742010E-01    5.5635214941E-01    5.4762654022E-01
    5.3899153219E-01    5.3044795864E-01    5.2199655257E-01    5.1363795251E-01
    5.0537270827E-01    4.9720128652E-01    4.8912407622E-01    4.8114139387E-01
    4.7325348847E-01    4.6546054624E-01    4.5776269506E-01    4.5016000851E-01
    4.4265250954E-01    4.3524017371E-01    4.2792293192E-01    4.2070067274E-01
    4.1357324420E-01    4.0654045505E-01    3.9960207567E-01    3.9275783847E-01
    3.8600743797E-01    3.7935053064E-01    3.7278673455E-01    3.6631562887E-01
    3.5993675354E-01    3.5364960894E-01    3.4745365590E-01    3.4134831596E-01
    3.3533297209E-01    3.2940696977E-01    3.2356961869E-01    3.1782019477E-01
    3.1215794281E-01    3.0658207950E-01    3.0109179682E-01    2.9568626579E-01
    2.9036464040E-01    2.8512606159E-01    2.7996966132E-01    2.7489456630E-01
    2.6989990151E-01    2.6498479323E-01    2.6014837141E-01    2.5538977144E-01
    2.5070813507E-01    2.4610261054E-01    2.4157235207E-01    2.3711651726E-01
    2.3273425866E-01    2.2842472016E-01    2.2418703808E-01    2.2002034250E-01
    2.1592375841E-01    2.1189640691E-01    2.0793740624E-01    2.0404587278E-01
    2.0022092198E-01    1.9646166926E-01    1.9276723079E-01    1.8913672429E-01
    1.8556926971E-01    1.8206398993E-01    1.7862001136E-01    1.7523646454E-01
    1.7191248467E-01    1.6864721213E-01    1.6543979295E-01    1.6228937925E-01
    1.5919512966E-01    1.5615620968E-01    1.5317179209E-01    1.5024105723E-01
    1.4736319335E-01    1.4453739687E-01    1.4176287269E-01    1.3903883440E-01
    1.3636450452E-01    1.3373911477E-01    1.3116190621E-01    1.2863212944E-01
    1.2614904483E-01    1.2371192262E-01    1.2132004308E-01    1.1897269672E-01
    1.1666918410E-01    1.1440881413E-01    1.1219090308E-01    1.1001477478E-01
    1.0787976087E-01    1.0578520104E-01    1.0373044318E-01    1.0171484344E-01
    9.9737766223E-02    9.7798584014E-02    9.5896677160E-02    9.4031433517E-02
    9.2202248019E-02    9.0408522188E-02    8.8649663591E-02    8.6925085284E-02
    8.5234205252E-02    8.3576445881E-02    8.1951233482E-02    8.0357997881E-02
    7.8796172097E-02    7.7265192118E-02    7.5764496782E-02    7.4293527766E-02
    7.2851729677E-02    7.1438550250E-02    7.0053440626E-02    6.8695855714E-02
    6.7365254610E-02    6.6061101070E-02    6.4782864004E-02    6.3530017996E-02
    6.2302043813E-02    6.1098428917E-02    5.9918667935E-02    5.8762263114E-02
    5.7628724723E-02    5.6517571416E-02    5.5428330544E-02    5.4360538418E-02
    5.3313740519E-02    5.2287491658E-02    5.1281356087E-02    5.0294907570E-02
    4.9327729402E-02    4.8379414395E-02    4.7449564828E-02    4.6537792368E-02
    4.5643717955E-02    4.4766971671E-02    4.3907192587E-02    4.3064028595E-02
    4.2237136216E-02    4.1426180413E-02    4.0630834382E-02    3.9850779342E-02
    3.9085704325E-02    3.8335305958E-02    3.7599288244E-02    3.6877362349E-02
    3.6169246388E-02    3.5474665213E-02    3.4793350204E-02    3.4125039071E-02
    3.3469475652E-02    3.2826409720E-02    3.2195596798E-02    3.1576797981E-02
    3.0969779752E-02    3.0374313823E-02    2.9790176967E-02    2.9217150861E-02
    2.8655021938E-02    2.8103581242E-02    2.7562624286E-02    2.7031950925E-02
    2.6511365223E-02    2.6000675332E-02    2.5499693377E-02    2.5008235341E-02
    2.4526120961E-02    2.4053173622E-02    2.3589220259E-02    2.3134091264E-02
    2.2687620396E-02    2.2249644691E-02    2.1820004382E-02    2.1398542817E-02
    2.0985106387E-02    2.0579544447E-02    2.0181709246E-02    1.9791455864E-02
    1.9408642142E-02    1.9033128620E-02    1.8664778478E-02    1.8303457476E-02
    1.7949033898E-02    1.7601378500E-02    1.7260364453E-02    1.6925867295E-02
    1.6597764882E-02    1.6275937340E-02    1.5960267018E-02    1.5650638444E-02
    1.5346938282E-02    1.5049055289E-02    1.4756880274E-02    1.4470306059E-02
    1.4189227439E-02    1.3913541147E-02    1.3643145813E-02    1.3377941930E-02
    1.3117831822E-02    1.2862719605E-02    1.2612511156E-02    1.2367114081E-02
    1.2126437683E-02    1.1890392928E-02    1.1658892421E-02    1.1431850367E-02
    1.1209182551E-02    1.0990806305E-02    1.0776640478E-02    1.0566605413E-02
    1.0360622920E-02    1.0158616243E-02    9.9605100445E-03    9.7662303712E-03
    9.5757046340E-03    9.3888615823E-03    9.2056312802E-03    9.0259450829E-03
    8.8497356138E-03    8.6769367416E-03    8.5074835585E-03    8.3413123582E-03
    8.1783606142E-03    8.0185669592E-03    7.8618711640E-03    7.7082141175E-03
    7.5575378065E-03    7.4097852962E-03    7.2649007111E-03    7.1228292156E-03
    6.9835169957E-03    6.8469112407E-03    6.7129601253E-03    6.5816127915E-03
    6.4528193319E-03    6.3265307720E-03    6.2026990537E-03    6.0812770189E-03
    5.9622183933E-03    5.8454777700E-03    5.7310105945E-03    5.6187731490E-03
    5.5087225372E-03    5.4008166695E-03    5.2950142484E-03    5.1912747544E-03
    5.0895584312E-03    4.9898262726E-03    4.8920400084E-03    4.7961620911E-03
    4.7021556827E-03    4.6099846420E-03    4.5196135116E-03    4.4310075053E-03
    4.3441324962E-03    4.2589550045E-03    4.1754421854E-03    4.0935618177E-03
    4.0132822922E-03    3.9345726005E-03    3.8574023241E-03    3.7817416232E-03
    3.7075612263E-03    3.6348324196E-03    3.5635270367E-03    3.4936174486E-03
    3.4250765533E-03    3.3578777669E-03    3.2919950130E-03    3.2274027140E-03
    3.1640757816E-03    3.1019896074E-03    3.0411200546E-03    2.9814434486E-03
    2.9229365689E-03    2.8655766401E-03    2.8093413240E-03    2.7542087112E-03
    2.7001573133E-03    2.6471660548E-03    2.5952142654E-03    2.5442816725E-03
    2.4943483937E-03    2.4453949292E-03    2.3974021553E-03    2.3503513164E-03
    2.3042240189E-03    2.2590022238E-03    2.2146682404E-03    2.1712047195E-03
    2.1285946469E-03    2.0868213373E-03    2.0458684280E-03    2.0057198726E-03
    1.9663599354E-03    1.9277731849E-03    1.8899444889E-03    1.8528590079E-03
    1.8165021902E-03    1.7808597661E-03    1.7459177426E-03    1.7116623984E-03
    1.6780802781E-03    1.6451581880E-03    1.6128831903E-03    1.5812425986E-03
    1.5502239732E-03    1.5198151161E-03    1.4900040667E-03    1.4607790969E-03
    1.4321287070E-03    1.4040416210E-03    1.3765067827E-03    1.3495133511E-03
    1.3230506965E-03    1.2971083964E-03    1.2716762315E-03    1.2467441819E-03
    1.2223024229E-03    1.1983413220E-03    1.1748514342E-03    1.1518234994E-03
    1.1292484379E-03    1.1071173478E-03    1.0854215010E-03    1.0641523398E-03
    1.0433014741E-03    1.0228606778E-03    1.0028218857E-03    9.8317719037E-04
    9.6391883923E-04    9.4503923140E-04    9.2653091484E-04    9.0838658347E-04
    8.9059907432E-04    8.7316136479E-04    8.5606656990E-04    8.3930793964E-04
    8.2287885633E-04    8.0677283209E-04    7.9098350629E-04    7.7550464310E-04
    7.6033012903E-04    7.4545397061E-04    7.3087029199E-04    7.1657333273E-04
    7.0255744548E-04    6.8881709381E-04    6.7534685009E-04    6.6214139329E-04
    6.4919550697E-04    6.3650407723E-04    6.2406209068E-04    6.1186463251E-04
    5.9990688457E-04    5.8818412345E-04    5.7669171866E-04    5.6542513083E-04
    5.5437990989E-04    5.4355169335E-04    5.3293620458E-04    5.2252925114E-04
    5.1232672314E-04    5.0232459160E-04    4.9251890687E-04    4.8290579713E-04
    4.7348146679E-04    4.6424219505E-04    4.5518433441E-04    4.4630430926E-04
    4.3759861444E-04    4.2906381387E-04    4.2069653921E-04    4.1249348852E-04
    4.0445142494E-04    3.9656717548E-04    3.8883762965E-04    3.8125973837E-04
    3.7383051264E-04    3.6654702245E-04    3.5940639558E-04    3.5240581647E-04
    3.4554252512E-04    3.3881381596E-04    3.3221703683E-04    3.2574958791E-04
    3.1940892067E-04    3.1319253690E-04    3.0709798768E-04    3.0112287244E-04
    2.9526483800E-04    2.8952157763E-04    2.8389083014E-04    2.7837037898E-04
    2.7295805137E-04    2.6765171745E-04    2.6244928937E-04    2.5734872057E-04
    2.5234800486E-04    2.4744517568E-04    2.4263830531E-04    2.3792550412E-04
    2.3330491979E-04    2.2877473657E-04    2.2433317459E-04    2.1997848915E-04
    2.1570896998E-04    2.1152294062E-04    2.0741875773E-04    2.0339481041E-04
    1.9944951959E-04    1.9558133740E-04    1.9178874655E-04    1.8807025972E-04
    1.8442441897E-04    1.8084979517E-04    1.7734498740E-04    1.7390862245E-04
    1.7053935420E-04    1.6723586316E-04    1.6399685589E-04    1.6082106449E-04
    1.5770724612E-04    1.5465418249E-04    1.5166067937E-04    1.4872556614E-04
    1.4584769527E-04    1.4302594194E-04    1.4025920350E-04    1.3754639911E-04
    1.3488646928E-04    1.3227837544E-04    1.2972109951E-04    1.2721364356E-04
    1.2475502932E-04    1.2234429789E-04    1.1998050926E-04    1.1766274201E-04
    1.1539009290E-04    1.1316167653E-04    1.1097662499E-04    1.0883408749E-04
    1.0673323005E-04    1.0467323514E-04    1.0265330137E-04    1.0067264318E-04
    9.8730490512E-05    9.6826088499E-05    9.4958697176E-05    9.3127591181E-05
    9.1332059465E-05    8.9571405008E-05    8.7844944545E-05    8.6152008289E-05
    8.4491939666E-05    8.2864095054E-05    8.1267843528E-05    7.9702566605E-05
    7.8167657998E-05    7.6662523379E-05    7.5186580137E-05    7.3739257148E-05
    7.2319994550E-05    7.0928243513E-05    6.9563466030E-05    6.8225134696E-05
    6.6912732498E-05    6.5625752615E-05    6.4363698208E-05    6.3126082231E-05
    6.1912427229E-05    6.0722265155E-05    5.9555137178E-05    5.8410593505E-05
    5.7288193199E-05    5.6187504006E-05    5.5108102181E-05    5.4049572320E-05
    5.3011507198E-05    5.1993507600E-05    5.0995182171E-05    5.0016147254E-05
    4.9056026741E-05    4.8114451922E-05    4.7191061339E-05    4.6285500642E-05
    4.5397422450E-05    4.4526486212E-05    4.3672358069E-05    4.2834710728E-05
    4.2013223326E-05    4.1207581306E-05    4.0417476292E-05    3.9642605964E-05
    3.8882673942E-05    3.8137389666E-05    3.7406468284E-05    3.6689630532E-05
    3.5986602633E-05    3.5297116181E-05    3.4620908039E-05    3.3957720230E-05
    3.3307299843E-05    3.2669398925E-05    3.2043774387E-05    3.1430187907E-05
    3.0828405835E-05    3.0238199101E-05    2.9659343128E-05    2.9091617735E-05
    2.8534807059E-05    2.7988699464E-05    2.7453087461E-05    2.6927767623E-05
    2.6412540506E-05    2.5907210571E-05    2.5411586106E-05    2.4925479152E-05
    2.4448705426E-05    2.3981084252E-05    2.3522438486E-05    2.3072594448E-05
    2.2631381857E-05    2.2198633757E-05    2.1774186457E-05    2.1357879464E-05
    2.0949555421E-05    2.0549060046E-05    2.0156242067E-05    1.9770953168E-05
    1.9393047928E-05    1.9022383764E-05    1.8658820877E-05    1.8302222193E-05
    1.7952453313E-05    1.7609382460E-05    1.7272880425E-05    1.6942820518E-05
    1.6619078521E-05    1.6301532632E-05    1.5990063425E-05    1.5684553801E-05
    1.5384888937E-05    1.5090956251E-05    1.4802645350E-05    1.4519847988E-05
    1.4242458027E-05    1.3970371393E-05    1.3703486038E-05    1.3441701895E-05
    1.3184920845E-05    1.2933046675E-05    1.2685985041E-05    1.2443643432E-05
    1.2205931136E-05    1.1972759200E-05    1.1744040398E-05    1.1519689198E-05
    1.1299621728E-05    1.1083755742E-05    1.0872010590E-05    1.0664307186E-05
    1.0460567976E-05    1.0260716912E-05    1.0064679417E-05    9.8723823596E-06
    9.6837540250E-06    9.4987240870E-06    9.3172235810E-06    9.1391848773E-06
    8.9645416546E-06    8.7932288748E-06    8.6251827577E-06    8.4603407563E-06
    8.2986415328E-06    8.1400249349E-06    7.9844319725E-06    7.8318047953E-06
    7.6820866699E-06    7.5352219587E-06    7.3911560977E-06    7.2498355763E-06
    7.1112079162E-06    6.9752216514E-06    6.8418263082E-06    6.7109723864E-06
    6.5826113396E-06    6.4566955571E-06    6.3331783455E-06    6.2120139106E-06
    6.0931573400E-06    5.9765645862E-06    5.8621924493E-06    5.7499985605E-06
    5.6399413664E-06    5.5319801126E-06    5.4260748282E-06    5.3221863109E-06
    5.2202761117E-06    5.1203065203E-06    5.0222405509E-06    4.9260419279E-06
    4.8316750723E-06    4.7391050878E-06    4.6482977479E-06    4.5592194830E-06
    4.4718373669E-06    4.3861191052E-06    4.3020330226E-06    4.2195480507E-06
    4.1386337167E-06    4.0592601314E-06    3.9813979782E-06    3.9050185019E-06
    3.8300934977E-06    3.7565953007E-06    3.6844967753E-06    3.6137713052E-06
    3.5443927829E-06    3.4763356004E-06    3.4095746391E-06    3.3440852606E-06
    3.2798432971E-06    3.2168250427E-06    3.1550072443E-06    3.0943670928E-06
    3.0348822144E-06    2.9765306625E-06    2.9192909093E-06    2.8631418378E-06
    2.8080627336E-06    2.7540332774E-06    2.7010335374E-06    2.6490439618E-06
    2.5980453711E-06    2.5480189517E-06    2.4989462479E-06    2.4508091560E-06
    2.4035899167E-06    2.3572711089E-06    2.3118356432E-06    2.2672667553E-06
    2.2235479998E-06    2.1806632445E-06    2.1385966635E-06    2.0973327324E-06
    2.0568562214E-06    2.0171521907E-06    1.9782059841E-06    1.9400032240E-06
    1.9025298059E-06    1.8657718933E-06    1.8297159124E-06    1.7943485471E-06
    1.7596567342E-06    1.7256276584E-06    1.6922487477E-06    1.6595076684E-06
    1.6273923211E-06    1.5958908357E-06    1.5649915674E-06    1.5346830920E-06
    1.5049542021E-06    1.4757939027E-06    1.4471914070E-06    1.4191361330E-06
    1.3916176990E-06    1.3646259199E-06    1.3381508037E-06    1.3121825476E-06
    1.2867115345E-06    1.2617283294E-06    1.2372236757E-06    1.2131884924E-06
    1.1896138703E-06    1.1664910685E-06    1.1438115120E-06    1.1215667878E-06
    1.0997486420E-06    1.0783489770E-06    1.0573598483E-06    1.0367734618E-06
    1.0165821706E-06    9.9677847257E-07    9.7735500734E-07    9.5830455377E-07
    9.3962002721E-07    9.2129447696E-07    9.0332108369E-07    8.8569315697E-07
    8.6840413285E-07    8.5144757138E-07    8.3481715436E-07    8.1850668295E-07
    8.0251007545E-07    7.8682136508E-07    7.7143469778E-07    7.5634433010E-07
    7.4154462708E-07    7.2703006022E-07    7.1279520547E-07    6.9883474122E-07
    6.8514344637E-07    6.7171619848E-07    6.5854797183E-07    6.4563383564E-07
    6.3296895226E-07    6.2054857540E-07    6.0836804844E-07    5.9642280269E-07
    5.8470835575E-07    5.7322030990E-07    5.6195435046E-07    5.5090624426E-07
    5.4007183808E-07    5.2944705714E-07    5.1902790364E-07    5.0881045529E-07
    4.9879086389E-07    4.8896535393E-07    4.7933022124E-07    4.6988183161E-07
    4.6061661951E-07    4.5153108674E-07    4.4262180124E-07    4.3388539578E-07
    4.2531856675E-07    4.1691807299E-07    4.0868073459E-07    4.0060343173E-07
    3.9268310358E-07    3.8491674716E-07    3.7730141626E-07    3.6983422038E-07
    3.6251232366E-07    3.5533294388E-07    3.4829335143E-07    3.4139086834E-07
    3.3462286728E-07    3.2798677062E-07    3.2148004952E-07    3.1510022297E-07
    3.0884485694E-07    3.0271156342E-07    2.9669799966E-07    2.9080186722E-07
    2.8502091119E-07    2.7935291937E-07    2.7379572146E-07    2.6834718825E-07
    2.6300523089E-07    2.5776780009E-07    2.5263288542E-07    2.4759851454E-07
    2.4266275249E-07    2.3782370102E-07    2.3307949787E-07    2.2842831610E-07
    2.2386836342E-07    2.1939788155E-07    2.1501514559E-07    2.1071846337E-07
    2.0650617485E-07    2.0237665149E-07    1.9832829572E-07    1.9435954028E-07
    1.9046884772E-07    1.8665470977E-07    1.8291564686E-07    1.7925020753E-07
    1.7565696795E-07    1.7213453134E-07    1.6868152752E-07    1.6529661235E-07
    1.6197846732E-07    1.5872579899E-07    1.5553733855E-07    1.5241184138E-07
    1.4934808655E-07    1.4634487642E-07    1.4340103615E-07    1.4051541334E-07
    1.3768687754E-07    1.3491431987E-07    1.3219665262E-07    1.2953280882E-07
    1.2692174190E-07    1.2436242526E-07    1.2185385192E-07    1.1939503413E-07
    1.1698500302E-07    1.1462280827E-07    1.1230751771E-07    1.1003821700E-07
    1.0781400932E-07    1.0563401500E-07    1.0349737122E-07    1.0140323168E-07
    9.9350766313E-08    9.7339160942E-08    9.5367617008E-08    9.3435351265E-08
    9.1541595494E-08    8.9685596217E-08    8.7866614423E-08    8.6083925291E-08
    8.4336817922E-08    8.2624595080E-08    8.0946572930E-08    7.9302080786E-08
    7.7690460864E-08    7.6111068038E-08    7.4563269597E-08    7.3046445015E-08
    7.1559985719E-08    7.0103294862E-08    6.8675787100E-08    6.7276888379E-08
    6.5906035716E-08    6.4562676992E-08    6.3246270748E-08    6.1956285977E-08
    6.0692201934E-08    5.9453507935E-08    5.8239703168E-08    5.7050296508E-08
    5.5884806330E-08    5.4742760333E-08    5.3623695358E-08    5.2527157216E-08
    5.1452700522E-08    5.0399888520E-08    4.9368292925E-08    4.8357493761E-08
    4.7367079200E-08    4.6396645412E-08    4.5445796406E-08    4.4514143888E-08
    4.3601307110E-08    4.2706912728E-08    4.1830594658E-08    4.0971993943E-08
    4.0130758612E-08    3.9306543550E-08    3.8499010367E-08    3.7707827265E-08
    3.6932668920E-08    3.6173216352E-08    3.5429156807E-08    3.4700183635E-08
    3.3985996178E-08    3.3286299650E-08    3.2600805031E-08    3.1929228948E-08
    3.1271293576E-08    3.0626726526E-08    2.9995260742E-08    2.9376634399E-08
    2.8770590805E-08    2.8176878297E-08    2.7595250151E-08    2.7025464482E-08
    2.6467284153E-08    2.5920476686E-08    2.5384814167E-08    2.4860073164E-08
    2.4346034638E-08    2.3842483859E-08    2.3349210320E-08    2.2866007661E-08
    2.2392673587E-08    2.1929009787E-08    2.1474821862E-08    2.1029919243E-08
    2.0594115125E-08    2.0167226388E-08    1.9749073528E-08    1.9339480587E-08
    1.8938275087E-08    1.8545287956E-08    1.8160353471E-08    1.7783309184E-08
    1.7413995867E-08    1.7052257444E-08    1.6697940931E-08    1.6350896377E-08
    1.6010976806E-08    1.5678038156E-08    1.5351939226E-08    1.5032541618E-08
    1.4719709684E-08    1.4413310471E-08    1.4113213671E-08    1.3819291566E-08
    1.3531418980E-08    1.3249473231E-08    1.2973334078E-08    1.2702883676E-08
    1.2438006532E-08    1.2178589452E-08    1.1924521503E-08    1.1675693965E-08
    1.1432000290E-08    1.1193336057E-08    1.0959598932E-08    1.0730688629E-08
    1.0506506864E-08    1.0286957323E-08    1.0071945619E-08    9.8613792554E-09
    9.6551675874E-09    9.4532217886E-09    9.2554548131E-09    9.0617813613E-09
    8.8721178453E-09    8.6863823554E-09    8.5044946271E-09    8.3263760086E-09
    8.1519494293E-09    7.9811393683E-09    7.8138718240E-09    7.6500742845E-09
    7.4896756976E-09    7.3326064424E-09    7.1787983010E-09    7.0281844306E-09
    6.8806993366E-09    6.7362788456E-09    6.5948600797E-09    6.4563814304E-09
    6.3207825339E-09    6.1880042461E-09    6.0579886185E-09    5.9306788749E-09
    5.8060193874E-09    5.6839556543E-09    5.5644342773E-09    5.4474029398E-09
    5.3328103855E-09    5.2206063969E-09    5.1107417752E-09    5.0031683195E-09
    4.8978388072E-09    4.7947069747E-09    4.6937274979E-09    4.5948559737E-09
    4.4980489016E-09    4.4032636655E-09    4.3104585165E-09    4.2195925551E-09
    4.1306257144E-09    4.0435187438E-09    3.9582331918E-09    3.8747313912E-09
    3.7929764422E-09    3.7129321981E-09    3.6345632493E-09    3.5578349091E-09
    3.4827131992E-09    3.4091648351E-09    3.3371572125E-09    3.2666583936E-09
    3.1976370937E-09    3.1300626678E-09    3.0639050982E-09    2.9991349816E-09
    2.9357235168E-09    2.8736424926E-09    2.8128642759E-09    2.7533617998E-09
    2.6951085529E-09    2.6380785672E-09    2.5822464078E-09    2.5275871619E-09
    2.4740764281E-09    2.4216903065E-09    2.3704053880E-09    2.3201987450E-09
    2.2710479210E-09    2.2229309216E-09    2.1758262051E-09    2.1297126728E-09
    2.0845696607E-09    2.0403769305E-09    1.9971146605E-09    1.9547634378E-09
    1.9133042496E-09    1.8727184753E-09    1.8329878784E-09    1.7940945986E-09
    1.7560211446E-09    1.7187503859E-09    1.6822655462E-09    1.6465501955E-09
    1.6115882438E-09    1.5773639333E-09    1.5438618324E-09    1.5110668287E-09
    1.4789641224E-09    1.4475392204E-09    1.4167779292E-09    1.3866663498E-09
    1.3571908708E-09    1.3283381632E-09    1.3000951740E-09    1.2724491211E-09
    1.2453874876E-09    1.2188980162E-09    1.1929687040E-09    1.1675877974E-09
    1.1427437869E-09    1.1184254018E-09    1.0946216061E-09    1.0713215927E-09
    1.0485147796E-09    1.0261908045E-09    1.0043395210E-09    9.8295099364E-10
    9.6201549376E-10    9.4152349530E-10    9.2146567057E-10    9.0183288619E-10
    8.8261619909E-10    8.6380685258E-10    8.4539627253E-10    8.2737606362E-10
    8.0973800564E-10    7.9247404987E-10    7.7557631560E-10    7.5903708659E-10
    7.4284880773E-10    7.2700408171E-10    7.1149566575E-10    6.9631646841E-10
    6.8145954648E-10    6.6691810189E-10    6.5268547876E-10    6.3875516039E-10
    6.2512076644E-10    6.1177605010E-10    5.9871489530E-10    5.8593131403E-10
    5.7341944368E-10    5.6117354443E-10    5.4918799675E-10    5.3745729884E-10
    5.2597606424E-10    5.1473901944E-10    5.0374100150E-10    4.9297695578E-10
    4.8244193369E-10    4.7213109050E-10    4.6203968316E-10    4.5216306820E-10
    4.4249669966E-10    4.3303612705E-10    4.2377699340E-10    4.1471503329E-10
    4.0584607092E-10    3.9716601832E-10    3.8867087343E-10    3.8035671839E-10
    3.7221971772E-10    3.6425611668E-10    3.5646223951E-10    3.4883448783E-10
    3.4136933901E-10    3.3406334460E-10    3.2691312879E-10    3.1991538686E-10
    3.1306688373E-10    3.0636445249E-10    2.9980499299E-10    2.9338547043E-10
    2.8710291400E-10    2.8095441556E-10    2.7493712828E-10    2.6904826543E-10
    2.6328509906E-10    2.5764495880E-10    2.5212523067E-10    2.4672335585E-10
    2.4143682959E-10    2.3626320000E-10    2.3120006704E-10    2.2624508133E-10
    2.2139594317E-10    2.1665040146E-10    2.1200625268E-10    2.0746133992E-10
    2.0301355185E-10    1.9866082184E-10    1.9440112695E-10    1.9023248704E-10
    1.8615296390E-10    1.8216066030E-10    1.7825371922E-10    1.7443032293E-10
    1.7068869219E-10    1.6702708546E-10    1.6344379807E-10    1.5993716149E-10
    1.5650554252E-10    1.5314734259E-10    1.4986099700E-10    1.4664497424E-10
    1.4349777525E-10    1.4041793278E-10    1.3740401067E-10    1.3445460327E-10
    1.3156833470E-10    1.2874385831E-10    1.2597985602E-10    1.2327503773E-10
    1.2062814070E-10    1.1803792904E-10    1.1550319307E-10    1.1302274882E-10
    1.1059543746E-10    1.0822012478E-10    1.0589570067E-10    1.0362107860E-10
    1.0139519514E-10    9.9217009456E-11    9.7085502848E-11    9.4999678269E-11
    9.2958559873E-11    9.0961192570E-11    8.9006641580E-11    8.7093992011E-11
    8.5222348433E-11    8.3390834469E-11    8.1598592392E-11    7.9844782730E-11
    7.8128583880E-11    7.6449191728E-11    7.4805819281E-11    7.3197696305E-11
    7.1624068968E-11    7.0084199494E-11    6.8577365822E-11    6.7102861274E-11
    6.5659994229E-11    6.4248087805E-11    6.2866479542E-11    6.1514521102E-11
    6.0191577966E-11    5.8897029144E-11    5.7630266884E-11    5.6390696394E-11
    5.5177735568E-11    5.3990814714E-11    5.2829376292E-11    5.1692874655E-11
    5.0580775799E-11    4.9492557115E-11    4.8427707144E-11    4.7385725345E-11
    4.6366121859E-11    4.5368417285E-11    4.4392142456E-11    4.3436838222E-11
    4.2502055237E-11    4.1587353753E-11    4.0692303412E-11    3.9816483047E-11
    3.8959480491E-11    3.8120892382E-11    3.7300323972E-11    3.6497388954E-11
    3.5711709272E-11    3.4942914952E-11    3.4190643926E-11    3.3454541867E-11
    3.2734262024E-11    3.2029465056E-11    3.1339818880E-11    3.0664998515E-11
    3.0004685928E-11    2.9358569889E-11    2.8726345826E-11    2.8107715680E-11
    2.7502387770E-11    2.6910076656E-11    2.6330503005E-11    2.5763393459E-11
    2.5208480515E-11    2.4665502392E-11    2.4134202912E-11    2.3614331381E-11
    2.3105642474E-11    2.2607896116E-11    2.2120857372E-11    2.1644296339E-11
    2.1177988037E-11    2.0721712305E-11    2.0275253695E-11    1.9838401375E-11
    1.9410949032E-11    1.8992694768E-11    1.8583441014E-11    1.8182994434E-11
    1.7791165832E-11    1.7407770070E-11    1.7032625975E-11    1.6665556259E-11
    1.6306387432E-11    1.5954949723E-11    1.5611077003E-11    1.5274606702E-11
    1.4945379737E-11    1.4623240434E-11    1.4308036459E-11    1.3999618744E-11
    1.3697841419E-11    1.3402561740E-11    1.3113640027E-11    1.2830939597E-11
    1.2554326695E-11    1.2283670439E-11    1.2018842755E-11    1.1759718315E-11
    1.1506174481E-11    1.1258091247E-11    1.1015351182E-11    1.0777839375E-11
    1.0545443383E-11    1.0318053174E-11    1.0095561078E-11    9.8778617389E-12
    9.6648520597E-12    9.4564311578E-12    9.2525003168E-12    9.0529629392E-12
    8.8577245025E-12    8.6666925133E-12    8.4797764650E-12    8.2968877944E-12
    8.1179398406E-12    7.9428478041E-12    7.7715287069E-12    7.6039013533E-12
    7.4398862919E-12    7.2794057784E-12    7.1223837387E-12    6.9687457331E-12
    6.8184189213E-12    6.6713320286E-12    6.5274153115E-12    6.3866005256E-12
    6.2488208928E-12    6.1140110706E-12    5.9821071208E-12    5.8530464795E-12
    5.7267679274E-12    5.6032115617E-12    5.4823187671E-12    5.3640321883E-12
    5.2482957034E-12    5.1350543969E-12    5.0242545344E-12    4.9158435366E-12
    4.8097699551E-12    4.7059834476E-12    4.6044347548E-12    4.5050756765E-12
    4.4078590494E-12    4.3127387243E-12    4.2196695449E-12    4.1286073262E-12
    4.0395088337E-12    3.9523317628E-12    3.8670347191E-12    3.7835771989E-12
    3.7019195696E-12    3.6220230517E-12    3.5438496998E-12    3.4673623853E-12
    3.3925247782E-12    3.3193013306E-12    3.2476572593E-12    3.1775585300E-12
    3.1089718407E-12    3.0418646061E-12    2.9762049422E-12    2.9119616517E-12
    2.8491042082E-12    2.7876027429E-12    2.7274280298E-12    2.6685514720E-12
    2.6109450883E-12    2.5545815000E-12    2.4994339176E-12    2.4454761288E-12
    2.3926824853E-12    2.3410278913E-12    2.2904877912E-12    2.2410381584E-12
    2.1926554835E-12    2.1453167634E-12    2.0989994905E-12    2.0536816419E-12
    2.0093416689E-12    1.9659584871E-12    1.9235114660E-12    1.8819804197E-12
    1.8413455970E-12    1.8015876721E-12    1.7626877355E-12    1.7246272853E-12
    1.6873882178E-12    1.6509528196E-12    1.6153037588E-12    1.5804240770E-12
    1.5462971810E-12    1.5129068352E-12    1.4802371540E-12    1.4482725938E-12
    1.4169979462E-12    1.3863983302E-12    1.3564591858E-12    1.3271662666E-12
    1.2985056332E-12    1.2704636466E-12    1.2430269619E-12    1.2161825216E-12
    1.1899175497E-12    1.1642195457E-12    1.1390762783E-12    1.1144757800E-12
    1.0904063412E-12    1.0668565048E-12    1.0438150604E-12    1.0212710396E-12
    9.9921371028E-13    9.7763257163E-13    9.5651734932E-13    9.3585799046E-13
    9.1564465895E-13    8.9586773071E-13    8.7651778916E-13    8.5758562077E-13
    8.3906221065E-13    8.2093873831E-13    8.0320657342E-13    7.8585727176E-13
    7.6888257120E-13    7.5227438777E-13    7.3602481183E-13    7.2012610429E-13
    7.0457069298E-13    6.8935116903E-13    6.7446028332E-13    6.5989094312E-13
    6.4563620861E-13    6.3168928970E-13    6.1804354272E-13    6.0469246731E-13
    5.9162970330E-13    5.7884902770E-13    5.6634435178E-13    5.5410971813E-13
    5.4213929783E-13    5.3042738772E-13    5.1896840765E-13    5.0775689785E-13
    4.9678751634E-13    4.8605503638E-13    4.7555434396E-13    4.6528043543E-13
    4.5522841509E-13    4.4539349284E-13    4.3577098194E-13    4.2635629677E-13
    4.1714495063E-13    4.0813255364E-13    3.9931481065E-13    3.9068751916E-13
    3.8224656736E-13    3.7398793216E-13    3.6590767730E-13    3.5800195142E-13
    3.5026698629E-13    3.4269909500E-13    3.3529467019E-13    3.2805018235E-13
    3.2096217814E-13    3.1402727874E-13    3.0724217824E-13    3.0060364211E-13
    2.9410850557E-13    2.8775367219E-13    2.8153611235E-13    2.7545286181E-13
    2.6950102032E-13    2.6367775022E-13    2.5798027509E-13    2.5240587845E-13
    2.4695190245E-13    2.4161574659E-13
   </PP_CHI.1>
   <PP_CHI.2
       type="real"
       size="1554"
       columns="4"
       index="2"
       occupation=" 6.000"
       pseudo_energy="   -0.2952574212E+01"
       label="3P"
       l="1" >
    1.6620135823E-11    3.4758986256E-04    1.3898173643E-03    3.1250575611E-03
    5.5506065818E-03    8.6626881484E-03    1.2456462637E-02    1.6926038613E-02
    2.2064486762E-02    2.7863856110E-02    3.4315192437E-02    4.1408558746E-02
    4.9133057670E-02    5.7476855668E-02    6.6427208883E-02    7.5970490498E-02
    8.6092219474E-02    9.6777090504E-02    1.0800900507E-01    1.1977110345E-01
    1.3204579762E-01    1.4481480485E-01    1.5805918196E-01    1.7175936017E-01
    1.8589518044E-01    2.0044592921E-01    2.1539037464E-01    2.3070680311E-01
    2.4637305617E-01    2.6236656781E-01    2.7866440206E-01    2.9524329103E-01
    3.1207967325E-01    3.2914973246E-01    3.4642943683E-01    3.6389457862E-01
    3.8152081427E-01    3.9928370498E-01    4.1715875774E-01    4.3512146686E-01
    4.5314735589E-01    4.7121201991E-01    4.8929116826E-01    5.0736066744E-01
    5.2539658426E-01    5.4337522906E-01    5.6127319888E-01    5.7906742047E-01
    5.9673519301E-01    6.1425423027E-01    6.3160270216E-01    6.4875927541E-01
    6.6570315319E-01    6.8241411350E-01    6.9887254605E-01    7.1505948760E-01
    7.3095665529E-01    7.4654647807E-01    7.6181212582E-01    7.7673753609E-01
    7.9130743834E-01    8.0550737542E-01    8.1932372238E-01    8.3274370230E-01
    8.4575539921E-01    8.5834776811E-01    8.7051064188E-01    8.8223473533E-01
    8.9351164627E-01    9.0433385374E-01    9.1469471352E-01    9.2458845095E-01
    9.3401015129E-01    9.4295574784E-01    9.5142200778E-01    9.5940651599E-01
    9.6690765715E-01    9.7392459623E-01    9.8045725769E-01    9.8650630351E-01
    9.9207311031E-01    9.9715974578E-01    1.0017689445E+00    1.0059040836E+00
    1.0095691579E+00    1.0127687554E+00    1.0155080326E+00    1.0177926902E+00
    1.0196289487E+00    1.0210235246E+00    1.0219836073E+00    1.0225168352E+00
    1.0226312739E+00    1.0223353928E+00    1.0216380436E+00    1.0205484383E+00
    1.0190761271E+00    1.0172309769E+00    1.0150231495E+00    1.0124630797E+00
    1.0095614531E+00    1.0063291834E+00    1.0027773899E+00    9.9891737363E-01
    9.9476059330E-01    9.9031864057E-01    9.8560321448E-01    9.8062609519E-01
    9.7539911694E-01    9.6993414023E-01    9.6424302334E-01    9.5833759317E-01
    9.5222961548E-01    9.4593076477E-01    9.3945259366E-01    9.3280650228E-01
    9.2600370747E-01    9.1905521226E-01    9.1197177567E-01    9.0476388303E-01
    8.9744171716E-01    8.9001513048E-01    8.8249361835E-01    8.7488629378E-01
    8.6720186384E-01    8.5944860779E-01    8.5163435726E-01    8.4376647850E-01
    8.3585185696E-01    8.2789688425E-01    8.1990744758E-01    8.1188893338E-01
    8.0384635871E-01    7.9578452415E-01    7.8770803278E-01    7.7962129634E-01
    7.7152854086E-01    7.6343381213E-01    7.5534098110E-01    7.4725374904E-01
    7.3917565284E-01    7.3111006959E-01    7.2306022182E-01    7.1502918210E-01
    7.0701987769E-01    6.9903509499E-01    6.9107748403E-01    6.8314956272E-01
    6.7525372111E-01    6.6739222549E-01    6.5956722252E-01    6.5178074317E-01
    6.4403470669E-01    6.3633092453E-01    6.2867110422E-01    6.2105685315E-01
    6.1348968248E-01    6.0597101088E-01    5.9850216840E-01    5.9108440021E-01
    5.8371887044E-01    5.7640666595E-01    5.6914880008E-01    5.6194621643E-01
    5.5479979245E-01    5.4771034314E-01    5.4067862445E-01    5.3370533670E-01
    5.2679112767E-01    5.1993659560E-01    5.1314229185E-01    5.0640872329E-01
    4.9973635435E-01    4.9312560872E-01    4.8657687074E-01    4.8009048635E-01
    4.7366676377E-01    4.6730597386E-01    4.6100835022E-01    4.5477408910E-01
    4.4860334924E-01    4.4249625155E-01    4.3645287902E-01    4.3047327659E-01
    4.2455745135E-01    4.1870537292E-01    4.1291697425E-01    4.0719215273E-01
    4.0153077170E-01    3.9593266244E-01    3.9039762640E-01    3.8492543795E-01
    3.7951584729E-01    3.7416858365E-01    3.6888335856E-01    3.6365986916E-01
    3.5849780134E-01    3.5339683263E-01    3.4835663468E-01    3.4337687523E-01
    3.3845721940E-01    3.3359733032E-01    3.2879686919E-01    3.2405549331E-01
    3.1937284882E-01    3.1474856742E-01    3.1018226717E-01    3.0567355353E-01
    3.0122202029E-01    2.9682725054E-01    2.9248881751E-01    2.8820628546E-01
    2.8397921044E-01    2.7980714110E-01    2.7568961939E-01    2.7162618126E-01
    2.6761635737E-01    2.6365967369E-01    2.5975565212E-01    2.5590381106E-01
    2.5210366603E-01    2.4835473013E-01    2.4465651458E-01    2.4100852925E-01
    2.3741028305E-01    2.3386128447E-01    2.3036104196E-01    2.2690906436E-01
    2.2350486131E-01    2.2014794364E-01    2.1683782372E-01    2.1357401584E-01
    2.1035603657E-01    2.0718340507E-01    2.0405564344E-01    2.0097227702E-01
    1.9793283470E-01    1.9493684925E-01    1.9198385753E-01    1.8907340091E-01
    1.8620502516E-01    1.8337827850E-01    1.8059271064E-01    1.7784787296E-01
    1.7514331896E-01    1.7247860458E-01    1.6985328852E-01    1.6726693236E-01
    1.6471910064E-01    1.6220936075E-01    1.5973728273E-01    1.5730243888E-01
    1.5490440330E-01    1.5254275127E-01    1.5021705865E-01    1.4792690112E-01
    1.4567185348E-01    1.4345148900E-01    1.4126537868E-01    1.3911309078E-01
    1.3699419026E-01    1.3490823851E-01    1.3285479309E-01    1.3083340771E-01
    1.2884363226E-01    1.2688501311E-01    1.2495709338E-01    1.2305941351E-01
    1.2119151176E-01    1.1935292493E-01    1.1754318907E-01    1.1576184025E-01
    1.1400841534E-01    1.1228245285E-01    1.1058349364E-01    1.0891108175E-01
    1.0726476509E-01    1.0564409606E-01    1.0404863225E-01    1.0247793690E-01
    1.0093157946E-01    9.9409135945E-02    9.7910189347E-02    9.6434329897E-02
    9.4981155308E-02    9.3550270957E-02    9.2141290007E-02    9.0753833490E-02
    8.9387530338E-02    8.8042017384E-02    8.6716939322E-02    8.5411948643E-02
    8.4126705536E-02    8.2860877778E-02    8.1614140598E-02    8.0386176528E-02
    7.9176675242E-02    7.7985333384E-02    7.6811854392E-02    7.5655948310E-02
    7.4517331608E-02    7.3395726990E-02    7.2290863206E-02    7.1202474865E-02
    7.0130302251E-02    6.9074091139E-02    6.8033592617E-02    6.7008562914E-02
    6.5998763226E-02    6.5003959556E-02    6.4023922549E-02    6.3058427345E-02
    6.2107253426E-02    6.1170184474E-02    6.0247008236E-02    5.9337516390E-02
    5.8441504424E-02    5.7558771510E-02    5.6689120394E-02    5.5832357282E-02
    5.4988291741E-02    5.4156736593E-02    5.3337507827E-02    5.2530424501E-02
    5.1735308662E-02    5.0951985261E-02    5.0180282076E-02    4.9420029636E-02
    4.8671061152E-02    4.7933212451E-02    4.7206321908E-02    4.6490230387E-02
    4.5784781183E-02    4.5089819967E-02    4.4405194731E-02    4.3730755740E-02
    4.3066355479E-02    4.2411848614E-02    4.1767091942E-02    4.1131944349E-02
    4.0506266774E-02    3.9889922164E-02    3.9282775443E-02    3.8684693469E-02
    3.8095545006E-02    3.7515200687E-02    3.6943532984E-02    3.6380416174E-02
    3.5825726313E-02    3.5279341204E-02    3.4741140372E-02    3.4211005032E-02
    3.3688818069E-02    3.3174464008E-02    3.2667828992E-02    3.2168800754E-02
    3.1677268597E-02    3.1193123371E-02    3.0716257450E-02    3.0246564708E-02
    2.9783940501E-02    2.9328281644E-02    2.8879486393E-02    2.8437454422E-02
    2.8002086807E-02    2.7573286001E-02    2.7150955823E-02    2.6735001434E-02
    2.6325329319E-02    2.5921847274E-02    2.5524464381E-02    2.5133090999E-02
    2.4747638739E-02    2.4368020455E-02    2.3994150221E-02    2.3625943319E-02
    2.3263316221E-02    2.2906186575E-02    2.2554473188E-02    2.2208096010E-02
    2.1866976123E-02    2.1531035720E-02    2.1200198096E-02    2.0874387631E-02
    2.0553529775E-02    2.0237551035E-02    1.9926378961E-02    1.9619942132E-02
    1.9318170142E-02    1.9020993590E-02    1.8728344059E-02    1.8440154112E-02
    1.8156357274E-02    1.7876888017E-02    1.7601681755E-02    1.7330674824E-02
    1.7063804475E-02    1.6801008857E-02    1.6542227009E-02    1.6287398847E-02
    1.6036465151E-02    1.5789367555E-02    1.5546048535E-02    1.5306451397E-02
    1.5070520267E-02    1.4838200078E-02    1.4609436563E-02    1.4384176239E-02
    1.4162366400E-02    1.3943955107E-02    1.3728891172E-02    1.3517124157E-02
    1.3308604355E-02    1.3103282784E-02    1.2901111177E-02    1.2702041973E-02
    1.2506028305E-02    1.2313023992E-02    1.2122983529E-02    1.1935862078E-02
    1.1751615459E-02    1.1570200139E-02    1.1391573228E-02    1.1215692463E-02
    1.1042516205E-02    1.0872003428E-02    1.0704113711E-02    1.0538807229E-02
    1.0376044744E-02    1.0215787599E-02    1.0057997710E-02    9.9026375532E-03
    9.7496701631E-03    9.5990591212E-03    9.4507685493E-03    9.3047631017E-03
    9.1610079576E-03    9.0194688140E-03    8.8801118781E-03    8.7429038599E-03
    8.6078119656E-03    8.4748038900E-03    8.3438478097E-03    8.2149123765E-03
    8.0879667102E-03    7.9629803924E-03    7.8399234592E-03    7.7187663953E-03
    7.5994801275E-03    7.4820360181E-03    7.3664058585E-03    7.2525618638E-03
    7.1404766656E-03    7.0301233070E-03    6.9214752359E-03    6.8145062998E-03
    6.7091907394E-03    6.6055031832E-03    6.5034186421E-03    6.4029125033E-03
    6.3039605254E-03    6.2065388327E-03    6.1106239097E-03    6.0161925963E-03
    5.9232220823E-03    5.8316899023E-03    5.7415739309E-03    5.6528523774E-03
    5.5655037811E-03    5.4795070064E-03    5.3948412381E-03    5.3114859767E-03
    5.2294210334E-03    5.1486265261E-03    5.0690828747E-03    4.9907707962E-03
    4.9136713011E-03    4.8377656883E-03    4.7630355415E-03    4.6894627243E-03
    4.6170293768E-03    4.5457179109E-03    4.4755110068E-03    4.4063916084E-03
    4.3383429198E-03    4.2713484016E-03    4.2053917667E-03    4.1404569764E-03
    4.0765282375E-03    4.0135899979E-03    3.9516269430E-03    3.8906239929E-03
    3.8305662980E-03    3.7714392360E-03    3.7132284087E-03    3.6559196382E-03
    3.5994989638E-03    3.5439526389E-03    3.4892671274E-03    3.4354291010E-03
    3.3824254358E-03    3.3302432093E-03    3.2788696974E-03    3.2282923713E-03
    3.1784988948E-03    3.1294771211E-03    3.0812150901E-03    3.0337010258E-03
    2.9869233331E-03    2.9408705952E-03    2.8955315714E-03    2.8508951935E-03
    2.8069505641E-03    2.7636869535E-03    2.7210937973E-03    2.6791606940E-03
    2.6378774022E-03    2.5972338387E-03    2.5572200756E-03    2.5178263382E-03
    2.4790430027E-03    2.4408605937E-03    2.4032697823E-03    2.3662613834E-03
    2.3298263539E-03    2.2939557905E-03    2.2586409273E-03    2.2238731340E-03
    2.1896439136E-03    2.1559449008E-03    2.1227678593E-03    2.0901046805E-03
    2.0579473810E-03    2.0262881013E-03    1.9951191034E-03    1.9644327689E-03
    1.9342215978E-03    1.9044782058E-03    1.8751953235E-03    1.8463657938E-03
    1.8179825706E-03    1.7900387170E-03    1.7625274037E-03    1.7354419074E-03
    1.7087756089E-03    1.6825219918E-03    1.6566746406E-03    1.6312272396E-03
    1.6061735711E-03    1.5815075138E-03    1.5572230414E-03    1.5333142214E-03
    1.5097752132E-03    1.4866002670E-03    1.4637837224E-03    1.4413200068E-03
    1.4192036343E-03    1.3974292043E-03    1.3759914000E-03    1.3548849873E-03
    1.3341048137E-03    1.3136458065E-03    1.2935029721E-03    1.2736713944E-03
    1.2541462340E-03    1.2349227266E-03    1.2159961821E-03    1.1973619834E-03
    1.1790155853E-03    1.1609525132E-03    1.1431683624E-03    1.1256587964E-03
    1.1084195466E-03    1.0914464107E-03    1.0747352518E-03    1.0582819975E-03
    1.0420826388E-03    1.0261332293E-03    1.0104298839E-03    9.9496877794E-04
    9.7974614666E-04    9.6475828377E-04    9.5000154077E-04    9.3547232603E-04
    9.2116710391E-04    9.0708239388E-04    8.9321476967E-04    8.7956085842E-04
    8.6611733987E-04    8.5288094551E-04    8.3984845782E-04    8.2701670944E-04
    8.1438258241E-04    8.0194300740E-04    7.8969496294E-04    7.7763547471E-04
    7.6576161476E-04    7.5407050084E-04    7.4255929564E-04    7.3122520612E-04
    7.2006548283E-04    7.0907741920E-04    6.9825835090E-04    6.8760565515E-04
    6.7711675012E-04    6.6678909426E-04    6.5662018567E-04    6.4660756150E-04
    6.3674879734E-04    6.2704150659E-04    6.1748333993E-04    6.0807198467E-04
    5.9880516423E-04    5.8968063756E-04    5.8069619858E-04    5.7184967564E-04
    5.6313893100E-04    5.5456186026E-04    5.4611639187E-04    5.3780048662E-04
    5.2961213712E-04    5.2154936731E-04    5.1361023197E-04    5.0579281623E-04
    4.9809523513E-04    4.9051563311E-04    4.8305218356E-04    4.7570308839E-04
    4.6846657757E-04    4.6134090868E-04    4.5432436651E-04    4.4741526260E-04
    4.4061193484E-04    4.3391274707E-04    4.2731608862E-04    4.2082037400E-04
    4.1442404243E-04    4.0812555748E-04    4.0192340670E-04    3.9581610123E-04
    3.8980217542E-04    3.8388018652E-04    3.7804871425E-04    3.7230636050E-04
    3.6665174895E-04    3.6108352477E-04    3.5560035423E-04    3.5020092442E-04
    3.4488394289E-04    3.3964813734E-04    3.3449225531E-04    3.2941506388E-04
    3.2441534932E-04    3.1949191685E-04    3.1464359028E-04    3.0986921178E-04
    3.0516764155E-04    3.0053775754E-04    2.9597845522E-04    2.9148864722E-04
    2.8706726315E-04    2.8271324927E-04    2.7842556826E-04    2.7420319895E-04
    2.7004513609E-04    2.6595039006E-04    2.6191798666E-04    2.5794696685E-04
    2.5403638654E-04    2.5018531630E-04    2.4639284118E-04    2.4265806049E-04
    2.3898008751E-04    2.3535804935E-04    2.3179108668E-04    2.2827835354E-04
    2.2481901714E-04    2.2141225762E-04    2.1805726787E-04    2.1475325334E-04
    2.1149943181E-04    2.0829503324E-04    2.0513929953E-04    2.0203148439E-04
    1.9897085308E-04    1.9595668233E-04    1.9298826004E-04    1.9006488521E-04
    1.8718586771E-04    1.8435052813E-04    1.8155819759E-04    1.7880821760E-04
    1.7609993989E-04    1.7343272624E-04    1.7080594832E-04    1.6821898757E-04
    1.6567123499E-04    1.6316209105E-04    1.6069096549E-04    1.5825727722E-04
    1.5586045412E-04    1.5349993297E-04    1.5117515925E-04    1.4888558703E-04
    1.4663067884E-04    1.4440990553E-04    1.4222274612E-04    1.4006868772E-04
    1.3794722536E-04    1.3585786188E-04    1.3380010781E-04    1.3177348125E-04
    1.2977750774E-04    1.2781172018E-04    1.2587565865E-04    1.2396887035E-04
    1.2209090949E-04    1.2024133715E-04    1.1841972117E-04    1.1662563610E-04
    1.1485866301E-04    1.1311838947E-04    1.1140440939E-04    1.0971632295E-04
    1.0805373650E-04    1.0641626245E-04    1.0480351917E-04    1.0321513095E-04
    1.0165072781E-04    1.0010994552E-04    9.8592425437E-05    9.7097814427E-05
    9.5625764804E-05    9.4175934228E-05    9.2747985624E-05    9.1341587099E-05
    8.9956411865E-05    8.8592138153E-05    8.7248449140E-05    8.5925032870E-05
    8.4621582177E-05    8.3337794611E-05    8.2073372365E-05    8.0828022202E-05
    7.9601455382E-05    7.8393387597E-05    7.7203538894E-05    7.6031633615E-05
    7.4877400325E-05    7.3740571748E-05    7.2620884701E-05    7.1518080032E-05
    7.0431902555E-05    6.9362100992E-05    6.8308427907E-05    6.7270639649E-05
    6.6248496295E-05    6.5241761587E-05    6.4250202880E-05    6.3273591083E-05
    6.2311700603E-05    6.1364309294E-05    6.0431198400E-05    5.9512152503E-05
    5.8606959474E-05    5.7715410418E-05    5.6837299625E-05    5.5972424522E-05
    5.5120585624E-05    5.4281586483E-05    5.3455233646E-05    5.2641336603E-05
    5.1839707746E-05    5.1050162322E-05    5.0272518388E-05    4.9506596769E-05
    4.8752221014E-05    4.8009217356E-05    4.7277414666E-05    4.6556644416E-05
    4.5846740639E-05    4.5147539886E-05    4.4458881190E-05    4.3780606027E-05
    4.3112558277E-05    4.2454584190E-05    4.1806532344E-05    4.1168253614E-05
    4.0539601135E-05    3.9920430267E-05    3.9310598560E-05    3.8709965721E-05
    3.8118393581E-05    3.7535746060E-05    3.6961889139E-05    3.6396690825E-05
    3.5840021120E-05    3.5291751992E-05    3.4751757344E-05    3.4219912983E-05
    3.3696096592E-05    3.3180187700E-05    3.2672067657E-05    3.2171619601E-05
    3.1678728434E-05    3.1193280794E-05    3.0715165029E-05    3.0244271168E-05
    2.9780490901E-05    2.9323717546E-05    2.8873846030E-05    2.8430772862E-05
    2.7994396109E-05    2.7564615373E-05    2.7141331764E-05    2.6724447883E-05
    2.6313867795E-05    2.5909497006E-05    2.5511242443E-05    2.5119012432E-05
    2.4732716679E-05    2.4352266241E-05    2.3977573515E-05    2.3608552212E-05
    2.3245117337E-05    2.2887185174E-05    2.2534673259E-05    2.2187500367E-05
    2.1845586491E-05    2.1508852824E-05    2.1177221740E-05    2.0850616775E-05
    2.0528962614E-05    2.0212185066E-05    1.9900211054E-05    1.9592968596E-05
    1.9290386785E-05    1.8992395778E-05    1.8698926774E-05    1.8409912005E-05
    1.8125284714E-05    1.7844979145E-05    1.7568930522E-05    1.7297075041E-05
    1.7029349849E-05    1.6765693034E-05    1.6506043608E-05    1.6250341495E-05
    1.5998527517E-05    1.5750543377E-05    1.5506331652E-05    1.5265835775E-05
    1.5029000022E-05    1.4795769503E-05    1.4566090146E-05    1.4339908685E-05
    1.4117172651E-05    1.3897830355E-05    1.3681830881E-05    1.3469124072E-05
    1.3259660517E-05    1.3053391543E-05    1.2850269204E-05    1.2650246266E-05
    1.2453276201E-05    1.2259313173E-05    1.2068312031E-05    1.1880228293E-05
    1.1695018142E-05    1.1512638416E-05    1.1333046591E-05    1.1156200779E-05
    1.0982059716E-05    1.0810582752E-05    1.0641729842E-05    1.0475461538E-05
    1.0311738977E-05    1.0150523877E-05    9.9917785249E-06    9.8354657690E-06
    9.6815490103E-06    9.5299921948E-06    9.3807598047E-06    9.2338168512E-06
    9.0891288656E-06    8.9466618925E-06    8.8063824816E-06    8.6682576804E-06
    8.5322550264E-06    8.3983425404E-06    8.2664887188E-06    8.1366625268E-06
    8.0088333914E-06    7.8829711943E-06    7.7590462652E-06    7.6370293757E-06
    7.5168917316E-06    7.3986049677E-06    7.2821411404E-06    7.1674727222E-06
    7.0545725948E-06    6.9434140439E-06    6.8339707522E-06    6.7262167945E-06
    6.6201266309E-06    6.5156751020E-06    6.4128374227E-06    6.3115891768E-06
    6.2119063113E-06    6.1137651317E-06    6.0171422958E-06    5.9220148092E-06
    5.8283600196E-06    5.7361556122E-06    5.6453796045E-06    5.5560103411E-06
    5.4680264895E-06    5.3814070347E-06    5.2961312749E-06    5.2121788166E-06
    5.1295295703E-06    5.0481637458E-06    4.9680618479E-06    4.8892046718E-06
    4.8115732993E-06    4.7351490941E-06    4.6599136977E-06    4.5858490255E-06
    4.5129372627E-06    4.4411608601E-06    4.3705025306E-06    4.3009452447E-06
    4.2324722274E-06    4.1650669540E-06    4.0987131464E-06    4.0333947697E-06
    3.9690960284E-06    3.9058013632E-06    3.8434954469E-06    3.7821631816E-06
    3.7217896950E-06    3.6623603370E-06    3.6038606769E-06    3.5462764995E-06
    3.4895938022E-06    3.4337987923E-06    3.3788778832E-06    3.3248176916E-06
    3.2716050349E-06    3.2192269276E-06    3.1676705789E-06    3.1169233896E-06
    3.0669729493E-06    3.0178070336E-06    2.9694136014E-06    2.9217807923E-06
    2.8748969236E-06    2.8287504881E-06    2.7833301512E-06    2.7386247486E-06
    2.6946232835E-06    2.6513149244E-06    2.6086890024E-06    2.5667350092E-06
    2.5254425942E-06    2.4848015627E-06    2.4448018731E-06    2.4054336353E-06
    2.3666871076E-06    2.3285526953E-06    2.2910209481E-06    2.2540825580E-06
    2.2177283574E-06    2.1819493169E-06    2.1467365431E-06    2.1120812769E-06
    2.0779748913E-06    2.0444088897E-06    2.0113749035E-06    1.9788646908E-06
    1.9468701340E-06    1.9153832382E-06    1.8843961297E-06    1.8539010535E-06
    1.8238903721E-06    1.7943565637E-06    1.7652922202E-06    1.7366900458E-06
    1.7085428553E-06    1.6808435724E-06    1.6535852279E-06    1.6267609586E-06
    1.6003640052E-06    1.5743877112E-06    1.5488255211E-06    1.5236709790E-06
    1.4989177270E-06    1.4745595040E-06    1.4505901442E-06    1.4270035753E-06
    1.4037938177E-06    1.3809549828E-06    1.3584812716E-06    1.3363669736E-06
    1.3146064652E-06    1.2931942087E-06    1.2721247507E-06    1.2513927214E-06
    1.2309928326E-06    1.2109198770E-06    1.1911687270E-06    1.1717343333E-06
    1.1526117239E-06    1.1337960026E-06    1.1152823484E-06    1.0970660142E-06
    1.0791423254E-06    1.0615066791E-06    1.0441545430E-06    1.0270814545E-06
    1.0102830191E-06    9.9375491006E-07    9.7749286700E-07    9.6149269501E-07
    9.4575026365E-07    9.3026150600E-07    9.1502241773E-07    9.0002905611E-07
    8.8527753916E-07    8.7076404467E-07    8.5648480935E-07    8.4243612793E-07
    8.2861435229E-07    8.1501589063E-07    8.0163720657E-07    7.8847481838E-07
    7.7552529810E-07    7.6278527080E-07    7.5025141372E-07    7.3792045551E-07
    7.2578917548E-07    7.1385440281E-07    7.0211301580E-07    6.9056194113E-07
    6.7919815317E-07    6.6801867319E-07    6.5702056873E-07    6.4620095284E-07
    6.3555698343E-07    6.2508586257E-07    6.1478483585E-07    6.0465119171E-07
    5.9468226077E-07    5.8487541522E-07    5.7522806819E-07    5.6573767312E-07
    5.5640172314E-07    5.4721775051E-07    5.3818332598E-07    5.2929605821E-07
    5.2055359324E-07    5.1195361388E-07    5.0349383915E-07    4.9517202377E-07
    4.8698595757E-07    4.7893346500E-07    4.7101240455E-07    4.6322066828E-07
    4.5555618131E-07    4.4801690126E-07    4.4060081782E-07    4.3330595222E-07
    4.2613035678E-07    4.1907211440E-07    4.1212933810E-07    4.0530017061E-07
    3.9858278383E-07    3.9197537847E-07    3.8547618354E-07    3.7908345596E-07
    3.7279548012E-07    3.6661056745E-07    3.6052705601E-07    3.5454331010E-07
    3.4865771982E-07    3.4286870071E-07    3.3717469334E-07    3.3157416294E-07
    3.2606559899E-07    3.2064751488E-07    3.1531844753E-07    3.1007695702E-07
    3.0492162625E-07    2.9985106057E-07    2.9486388743E-07    2.8995875609E-07
    2.8513433720E-07    2.8038932253E-07    2.7572242464E-07    2.7113237652E-07
    2.6661793132E-07    2.6217786202E-07    2.5781096110E-07    2.5351604026E-07
    2.4929193015E-07    2.4513748001E-07    2.4105155743E-07    2.3703304806E-07
    2.3308085531E-07    2.2919390011E-07    2.2537112057E-07    2.2161147180E-07
    2.1791392558E-07    2.1427747013E-07    2.1070110983E-07    2.0718386500E-07
    2.0372477164E-07    2.0032288115E-07    1.9697726016E-07    1.9368699023E-07
    1.9045116764E-07    1.8726890315E-07    1.8413932181E-07    1.8106156268E-07
    1.7803477866E-07    1.7505813624E-07    1.7213081529E-07    1.6925200889E-07
    1.6642092306E-07    1.6363677661E-07    1.6089880090E-07    1.5820623968E-07
    1.5555834887E-07    1.5295439637E-07    1.5039366188E-07    1.4787543670E-07
    1.4539902357E-07    1.4296373649E-07    1.4056890049E-07    1.3821385153E-07
    1.3589793628E-07    1.3362051197E-07    1.3138094622E-07    1.2917861686E-07
    1.2701291179E-07    1.2488322881E-07    1.2278897548E-07    1.2072956893E-07
    1.1870443574E-07    1.1671301178E-07    1.1475474207E-07    1.1282908060E-07
    1.1093549025E-07    1.0907344260E-07    1.0724241779E-07    1.0544190442E-07
    1.0367139939E-07    1.0193040777E-07    1.0021844269E-07    9.8535025158E-08
    9.6879684007E-08    9.5251955717E-08    9.3651384318E-08    9.2077521257E-08
    9.0529925288E-08    8.9008162353E-08    8.7511805465E-08    8.6040434597E-08
    8.4593636571E-08    8.3171004947E-08    8.1772139917E-08    8.0396648197E-08
    7.9044142923E-08    7.7714243552E-08    7.6406575752E-08    7.5120771313E-08
    7.3856468040E-08    7.2613309661E-08    7.1390945732E-08    7.0189031542E-08
    6.9007228021E-08    6.7845201649E-08    6.6702624368E-08    6.5579173494E-08
    6.4474531631E-08    6.3388386582E-08    6.2320431272E-08    6.1270363658E-08
    6.0237886654E-08    5.9222708049E-08    5.8224540426E-08    5.7243101089E-08
    5.6278111983E-08    5.5329299622E-08    5.4396395012E-08    5.3479133582E-08
    5.2577255110E-08    5.1690503652E-08    5.0818627477E-08    4.9961378993E-08
    4.9118514684E-08    4.8289795045E-08    4.7474984512E-08    4.6673851403E-08
    4.5886167852E-08    4.5111709748E-08    4.4350256676E-08    4.3601591853E-08
    4.2865502074E-08    4.2141777649E-08    4.1430212349E-08    4.0730603349E-08
    4.0042751171E-08    3.9366459634E-08    3.8701535794E-08    3.8047789898E-08
    3.7405035326E-08    3.6773088544E-08    3.6151769052E-08    3.5540899336E-08
    3.4940304817E-08    3.4349813805E-08    3.3769257451E-08    3.3198469702E-08
    3.2637287253E-08    3.2085549504E-08    3.1543098515E-08    3.1009778962E-08
    3.0485438096E-08    2.9969925700E-08    2.9463094048E-08    2.8964797861E-08
    2.8474894272E-08    2.7993242783E-08    2.7519705229E-08    2.7054145736E-08
    2.6596430687E-08    2.6146428683E-08    2.5704010508E-08    2.5269049090E-08
    2.4841419471E-08    2.4420998769E-08    2.4007666143E-08    2.3601302763E-08
    2.3201791772E-08    2.2809018259E-08    2.2422869224E-08    2.2043233547E-08
    2.1670001957E-08    2.1303067001E-08    2.0942323016E-08    2.0587666097E-08
    2.0238994072E-08    1.9896206468E-08    1.9559204487E-08    1.9227890978E-08
    1.8902170409E-08    1.8581948839E-08    1.8267133895E-08    1.7957634743E-08
    1.7653362065E-08    1.7354228033E-08    1.7060146283E-08    1.6771031895E-08
    1.6486801362E-08    1.6207372575E-08    1.5932664795E-08    1.5662598629E-08
    1.5397096013E-08    1.5136080185E-08    1.4879475666E-08    1.4627208240E-08
    1.4379204929E-08    1.4135393975E-08    1.3895704821E-08    1.3660068090E-08
    1.3428415564E-08    1.3200680166E-08    1.2976795942E-08    1.2756698042E-08
    1.2540322700E-08    1.2327607217E-08    1.2118489945E-08    1.1912910267E-08
    1.1710808583E-08    1.1512126287E-08    1.1316805759E-08    1.1124790342E-08
    1.0936024329E-08    1.0750452945E-08    1.0568022336E-08    1.0388679547E-08
    1.0212372515E-08    1.0039050045E-08    9.8686618056E-09    9.7011583055E-09
    9.5364908854E-09    9.3746117021E-09    9.2154737150E-09    9.0590306729E-09
    8.9052371008E-09    8.7540482871E-09    8.6054202707E-09    8.4593098286E-09
    8.3156744637E-09    8.1744723924E-09    8.0356625330E-09    7.8992044939E-09
    7.7650585621E-09    7.6331856920E-09    7.5035474938E-09    7.3761062233E-09
    7.2508247704E-09    7.1276666491E-09    7.0065959867E-09    6.8875775138E-09
    6.7705765539E-09    6.6555590139E-09    6.5424913741E-09    6.4313406788E-09
    6.3220745267E-09    6.2146610616E-09    6.1090689635E-09    6.0052674396E-09
    5.9032262152E-09    5.8029155255E-09    5.7043061066E-09    5.6073691875E-09
    5.5120764816E-09    5.4184001787E-09    5.3263129370E-09    5.2357878754E-09
    5.1467985654E-09    5.0593190242E-09    4.9733237063E-09    4.8887874972E-09
    4.8056857053E-09    4.7239940553E-09    4.6436886812E-09    4.5647461193E-09
    4.4871433015E-09    4.4108575487E-09    4.3358665641E-09    4.2621484272E-09
    4.1896815871E-09    4.1184448564E-09    4.0484174052E-09    3.9795787551E-09
    3.9119087730E-09    3.8453876659E-09    3.7799959745E-09    3.7157145681E-09
    3.6525246389E-09    3.5904076966E-09    3.5293455631E-09    3.4693203670E-09
    3.4103145390E-09    3.3523108062E-09    3.2952921876E-09    3.2392419889E-09
    3.1841437979E-09    3.1299814795E-09    3.0767391712E-09    3.0244012787E-09
    2.9729524709E-09    2.9223776761E-09    2.8726620769E-09    2.8237911067E-09
    2.7757504449E-09    2.7285260130E-09    2.6821039706E-09    2.6364707111E-09
    2.5916128581E-09    2.5475172614E-09    2.5041709929E-09    2.4615613435E-09
    2.4196758189E-09    2.3785021359E-09    2.3380282195E-09    2.2982421985E-09
    2.2591324029E-09    2.2206873600E-09    2.1828957911E-09    2.1457466086E-09
    2.1092289122E-09    2.0733319865E-09    2.0380452969E-09    2.0033584876E-09
    1.9692613779E-09    1.9357439593E-09    1.9027963929E-09    1.8704090065E-09
    1.8385722913E-09    1.8072768997E-09    1.7765136425E-09    1.7462734860E-09
    1.7165475494E-09    1.6873271024E-09    1.6586035627E-09    1.6303684931E-09
    1.6026135995E-09    1.5753307282E-09    1.5485118638E-09    1.5221491267E-09
    1.4962347705E-09    1.4707611804E-09    1.4457208704E-09    1.4211064817E-09
    1.3969107798E-09    1.3731266530E-09    1.3497471102E-09    1.3267652787E-09
    1.3041744024E-09    1.2819678396E-09    1.2601390613E-09    1.2386816492E-09
    1.2175892937E-09    1.1968557924E-09    1.1764750478E-09    1.1564410660E-09
    1.1367479546E-09    1.1173899214E-09    1.0983612721E-09    1.0796564092E-09
    1.0612698300E-09    1.0431961253E-09    1.0254299776E-09    1.0079661595E-09
    9.9079953240E-10    9.7392504485E-10    9.5733773111E-10    9.4103270968E-10
    9.2500518191E-10    9.0925043057E-10    8.9376381848E-10    8.7854078717E-10
    8.6357685550E-10    8.4886761843E-10    8.3440874564E-10    8.2019598034E-10
    8.0622513800E-10    7.9249210510E-10    7.7899283797E-10    7.6572336158E-10
    7.5267976839E-10    7.3985821718E-10    7.2725493198E-10    7.1486620092E-10
    7.0268837515E-10    6.9071786780E-10    6.7895115288E-10    6.6738476431E-10
    6.5601529485E-10    6.4483939514E-10    6.3385377271E-10    6.2305519099E-10
    6.1244046840E-10    6.0200647740E-10    5.9175014358E-10    5.8166844475E-10
    5.7175841006E-10    5.6201711912E-10    5.5244170119E-10    5.4302933426E-10
    5.3377724430E-10    5.2468270439E-10    5.1574303395E-10    5.0695559796E-10
    4.9831780617E-10    4.8982711233E-10    4.8148101349E-10    4.7327704921E-10
    4.6521280088E-10    4.5728589099E-10    4.4949398244E-10    4.4183477785E-10
    4.3430601889E-10    4.2690548561E-10    4.1963099581E-10    4.1248040437E-10
    4.0545160264E-10    3.9854251782E-10    3.9175111235E-10    3.8507538329E-10
    3.7851336179E-10    3.7206311243E-10    3.6572273272E-10    3.5949035252E-10
    3.5336413349E-10    3.4734226853E-10    3.4142298129E-10    3.3560452561E-10
    3.2988518503E-10    3.2426327227E-10    3.1873712877E-10    3.1330512415E-10
    3.0796565577E-10    3.0271714824E-10    2.9755805297E-10    2.9248684771E-10
    2.8750203609E-10    2.8260214720E-10    2.7778573515E-10    2.7305137865E-10
    2.6839768057E-10    2.6382326756E-10    2.5932678964E-10    2.5490691977E-10
    2.5056235351E-10    2.4629180859E-10    2.4209402458E-10    2.3796776248E-10
    2.3391180436E-10    2.2992495303E-10    2.2600603166E-10    2.2215388344E-10
    2.1836737127E-10    2.1464537735E-10    2.1098680295E-10    2.0739056800E-10
    2.0385561083E-10    2.0038088783E-10    1.9696537315E-10    1.9360805839E-10
    1.9030795232E-10    1.8706408058E-10    1.8387548540E-10    1.8074122528E-10
    1.7766037477E-10    1.7463202418E-10    1.7165527927E-10    1.6872926104E-10
    1.6585310546E-10    1.6302596319E-10    1.6024699936E-10    1.5751539329E-10
    1.5483033830E-10    1.5219104141E-10    1.4959672317E-10    1.4704661738E-10
    1.4453997087E-10    1.4207604333E-10    1.3965410702E-10    1.3727344660E-10
    1.3493335891E-10    1.3263315276E-10    1.3037214872E-10    1.2814967895E-10
    1.2596508696E-10    1.2381772744E-10    1.2170696607E-10    1.1963217933E-10
    1.1759275431E-10    1.1558808856E-10
   </PP_CHI.2>
   <PP_CHI.3
       type="real"
       size="1554"
       columns="4"
       index="3"
       occupation=" 2.000"
       pseudo_energy="   -0.3004756127E+00"
       label="3D"
       l="2" >
    8.5185079476E-12    5.2234834744E-06    4.1763119756E-05    1.4081143172E-04
    3.3331419672E-04    6.4984835752E-04    1.1205014678E-03    1.7747531737E-03
    2.6413592240E-03    3.7482384924E-03    5.1223634805E-03    6.7896547565E-03
    8.7748797697E-03    1.1101556459E-02    1.3791862053E-02    1.6866547447E-02
    2.0344857497E-02    2.4244457573E-02    2.8581366659E-02    3.3369897280E-02
    3.8622602498E-02    4.4350230183E-02    5.0561684741E-02    5.7263996447E-02
    6.4462298485E-02    7.2159811791E-02    8.0357837713E-02    8.9055758527E-02
    9.8251045747E-02    1.0793927619E-01    1.1811415569E-01    1.2876755029E-01
    1.3988952483E-01    1.5146838859E-01    1.6349074792E-01    1.7594156544E-01
    1.8880422554E-01    2.0206060599E-01    2.1569115510E-01    2.2967497415E-01
    2.4398990475E-01    2.5861262056E-01    2.7351872301E-01    2.8868284062E-01
    3.0407873125E-01    3.1967938699E-01    3.3545714115E-01    3.5138377667E-01
    3.6743063577E-01    3.8356872995E-01    3.9976885025E-01    4.1600167682E-01
    4.3223788771E-01    4.4844826616E-01    4.6460380596E-01    4.8067581449E-01
    4.9663601294E-01    5.1245663333E-01    5.2811051187E-01    5.4357117842E-01
    5.5881294156E-01    5.7381096903E-01    5.8854136324E-01    6.0298123162E-01
    6.1710875149E-01    6.3090322937E-01    6.4434515450E-01    6.5741624645E-01
    6.7009949673E-01    6.8237920434E-01    6.9424100520E-01    7.0567189555E-01
    7.1666024920E-01    7.2719582888E-01    7.3726979165E-01    7.4687468848E-01
    7.5600445821E-01    7.6465441602E-01    7.7282123663E-01    7.8050293240E-01
    7.8769882664E-01    7.9440952233E-01    8.0063686651E-01    8.0638391063E-01
    8.1165486723E-01    8.1645506312E-01    8.2079088946E-01    8.2466974907E-01
    8.2810000120E-01    8.3109090416E-01    8.3365255608E-01    8.3579583415E-01
    8.3753233260E-01    8.3887429976E-01    8.3983457453E-01    8.4042652249E-01
    8.4066397195E-01    8.4056115027E-01    8.4013262059E-01    8.3939321936E-01
    8.3835799481E-01    8.3704214661E-01    8.3546096694E-01    8.3362978315E-01
    8.3156390222E-01    8.2927855717E-01    8.2678885553E-01    8.2410973012E-01
    8.2125589214E-01    8.1824178677E-01    8.1508155138E-01    8.1178897633E-01
    8.0837746858E-01    8.0486001805E-01    8.0124916687E-01    7.9755698149E-01
    7.9379502769E-01    7.8997434855E-01    7.8610544532E-01    7.8219826124E-01
    7.7826216821E-01    7.7430595646E-01    7.7033782698E-01    7.6636538676E-01
    7.6239564685E-01    7.5843502310E-01    7.5448933952E-01    7.5056383423E-01
    7.4666316787E-01    7.4279143442E-01    7.3895217436E-01    7.3514838994E-01
    7.3138256260E-01    7.2765667239E-01    7.2397221913E-01    7.2033024539E-01
    7.1673136096E-01    7.1317576883E-01    7.0966329242E-01    7.0619340394E-01
    7.0276525379E-01    6.9937770074E-01    6.9602934274E-01    6.9271854830E-01
    6.8944348816E-01    6.8620216704E-01    6.8299245547E-01    6.7981212135E-01
    6.7665886118E-01    6.7353033071E-01    6.7042417491E-01    6.6733805698E-01
    6.6426968642E-01    6.6121684580E-01    6.5817741620E-01    6.5514940113E-01
    6.5213094879E-01    6.4912037254E-01    6.4611616947E-01    6.4311703688E-01
    6.4012188677E-01    6.3712985788E-01    6.3414032563E-01    6.3115290958E-01
    6.2816747844E-01    6.2518415265E-01    6.2220329989E-01    6.1922544147E-01
    6.1625108845E-01    6.1328071498E-01    6.1031476001E-01    6.0735362951E-01
    6.0439769908E-01    6.0144731675E-01    5.9850280604E-01    5.9556446919E-01
    5.9263259032E-01    5.8970743863E-01    5.8678927133E-01    5.8387833637E-01
    5.8097487477E-01    5.7807912251E-01    5.7519131194E-01    5.7231167269E-01
    5.6944043202E-01    5.6657781471E-01    5.6372404245E-01    5.6087933287E-01
    5.5804389823E-01    5.5521794389E-01    5.5240166666E-01    5.4959525313E-01
    5.4679887815E-01    5.4401270338E-01    5.4123687628E-01    5.3847152935E-01
    5.3571677986E-01    5.3297273003E-01    5.3023946767E-01    5.2751706723E-01
    5.2480559130E-01    5.2210509234E-01    5.1941561457E-01    5.1673719637E-01
    5.1406987402E-01    5.1141368321E-01    5.0876865896E-01    5.0613483536E-01
    5.0351224547E-01    5.0090092110E-01    4.9830089275E-01    4.9571218952E-01
    4.9313483898E-01    4.9056886718E-01    4.8801429862E-01    4.8547115618E-01
    4.8293946117E-01    4.8041923333E-01    4.7791049089E-01    4.7541325056E-01
    4.7292752764E-01    4.7045333606E-01    4.6799068846E-01    4.6553959630E-01
    4.6310006994E-01    4.6067211872E-01    4.5825575114E-01    4.5585097492E-01
    4.5345779718E-01    4.5107622453E-01    4.4870626325E-01    4.4634791942E-01
    4.4400119907E-01    4.4166610838E-01    4.3934265381E-01    4.3703084228E-01
    4.3473068139E-01    4.3244217954E-01    4.3016534618E-01    4.2790019201E-01
    4.2564672903E-01    4.2340496995E-01    4.2117492787E-01    4.1895661641E-01
    4.1675004998E-01    4.1455524405E-01    4.1237221532E-01    4.1020098192E-01
    4.0804156348E-01    4.0589398112E-01    4.0375825730E-01    4.0163441563E-01
    3.9952248041E-01    3.9742247618E-01    3.9533442708E-01    3.9325835613E-01
    3.9119428445E-01    3.8914223038E-01    3.8710220862E-01    3.8507422933E-01
    3.8305829732E-01    3.8105441120E-01    3.7906256273E-01    3.7708273617E-01
    3.7511490784E-01    3.7315904570E-01    3.7121510923E-01    3.6928304927E-01
    3.6736280811E-01    3.6545431969E-01    3.6355750987E-01    3.6167229687E-01
    3.5979859172E-01    3.5793629886E-01    3.5608531670E-01    3.5424553830E-01
    3.5241685206E-01    3.5059914234E-01    3.4879229015E-01    3.4699617386E-01
    3.4521066973E-01    3.4343565260E-01    3.4167099643E-01    3.3991657478E-01
    3.3817226137E-01    3.3643793046E-01    3.3471345727E-01    3.3299871832E-01
    3.3129359175E-01    3.2959795759E-01    3.2791169799E-01    3.2623469741E-01
    3.2456684277E-01    3.2290802363E-01    3.2125813221E-01    3.1961706353E-01
    3.1798471545E-01    3.1636098869E-01    3.1474578683E-01    3.1313901634E-01
    3.1154058653E-01    3.0995040953E-01    3.0836840026E-01    3.0679447634E-01
    3.0522855810E-01    3.0367056842E-01    3.0212043276E-01    3.0057807901E-01
    2.9904343742E-01    2.9751644058E-01    2.9599702325E-01    2.9448512235E-01
    2.9298067683E-01    2.9148362763E-01    2.8999391755E-01    2.8851149118E-01
    2.8703629487E-01    2.8556827658E-01    2.8410738584E-01    2.8265357370E-01
    2.8120679259E-01    2.7976699631E-01    2.7833413995E-01    2.7690817981E-01
    2.7548907333E-01    2.7407677908E-01    2.7267125663E-01    2.7127246656E-01
    2.6988037036E-01    2.6849493043E-01    2.6711610996E-01    2.6574387296E-01
    2.6437818418E-01    2.6301900907E-01    2.6166631372E-01    2.6032006490E-01
    2.5898022992E-01    2.5764677667E-01    2.5631967359E-01    2.5499888959E-01
    2.5368439407E-01    2.5237615686E-01    2.5107414822E-01    2.4977833882E-01
    2.4848869968E-01    2.4720520220E-01    2.4592781811E-01    2.4465651946E-01
    2.4339127859E-01    2.4213206814E-01    2.4087886102E-01    2.3963163040E-01
    2.3839034969E-01    2.3715499253E-01    2.3592553278E-01    2.3470194452E-01
    2.3348420203E-01    2.3227227978E-01    2.3106615241E-01    2.2986579475E-01
    2.2867118179E-01    2.2748228869E-01    2.2629909075E-01    2.2512156343E-01
    2.2394968232E-01    2.2278342315E-01    2.2162276180E-01    2.2046767424E-01
    2.1931813661E-01    2.1817412512E-01    2.1703561614E-01    2.1590258611E-01
    2.1477501162E-01    2.1365286933E-01    2.1253613603E-01    2.1142478859E-01
    2.1031880400E-01    2.0921815932E-01    2.0812283173E-01    2.0703279848E-01
    2.0594803693E-01    2.0486852452E-01    2.0379423877E-01    2.0272515730E-01
    2.0166125781E-01    2.0060251807E-01    1.9954891596E-01    1.9850042942E-01
    1.9745703648E-01    1.9641871525E-01    1.9538544391E-01    1.9435720072E-01
    1.9333396404E-01    1.9231571228E-01    1.9130242393E-01    1.9029407758E-01
    1.8929065186E-01    1.8829212551E-01    1.8729847732E-01    1.8630968616E-01
    1.8532573098E-01    1.8434659081E-01    1.8337224473E-01    1.8240267192E-01
    1.8143785161E-01    1.8047776312E-01    1.7952238583E-01    1.7857169920E-01
    1.7762568276E-01    1.7668431611E-01    1.7574757893E-01    1.7481545097E-01
    1.7388791203E-01    1.7296494201E-01    1.7204652086E-01    1.7113262862E-01
    1.7022324539E-01    1.6931835134E-01    1.6841792671E-01    1.6752195182E-01
    1.6663040705E-01    1.6574327285E-01    1.6486052976E-01    1.6398215835E-01
    1.6310813931E-01    1.6223845337E-01    1.6137308132E-01    1.6051200405E-01
    1.5965520250E-01    1.5880265769E-01    1.5795435069E-01    1.5711026266E-01
    1.5627037483E-01    1.5543466848E-01    1.5460312498E-01    1.5377572575E-01
    1.5295245230E-01    1.5213328620E-01    1.5131820907E-01    1.5050720263E-01
    1.4970024864E-01    1.4889732896E-01    1.4809842548E-01    1.4730352019E-01
    1.4651259514E-01    1.4572563243E-01    1.4494261425E-01    1.4416352286E-01
    1.4338834055E-01    1.4261704973E-01    1.4184963284E-01    1.4108607240E-01
    1.4032635099E-01    1.3957045127E-01    1.3881835596E-01    1.3807004784E-01
    1.3732550977E-01    1.3658472465E-01    1.3584767548E-01    1.3511434531E-01
    1.3438471725E-01    1.3365877447E-01    1.3293650024E-01    1.3221787786E-01
    1.3150289071E-01    1.3079152222E-01    1.3008375591E-01    1.2937957535E-01
    1.2867896417E-01    1.2798190608E-01    1.2728838483E-01    1.2659838425E-01
    1.2591188824E-01    1.2522888076E-01    1.2454934581E-01    1.2387326748E-01
    1.2320062992E-01    1.2253141733E-01    1.2186561399E-01    1.2120320422E-01
    1.2054417242E-01    1.1988850305E-01    1.1923618063E-01    1.1858718973E-01
    1.1794151501E-01    1.1729914115E-01    1.1666005293E-01    1.1602423517E-01
    1.1539167276E-01    1.1476235064E-01    1.1413625382E-01    1.1351336737E-01
    1.1289367642E-01    1.1227716614E-01    1.1166382180E-01    1.1105362869E-01
    1.1044657217E-01    1.0984263768E-01    1.0924181069E-01    1.0864407675E-01
    1.0804942145E-01    1.0745783045E-01    1.0686928948E-01    1.0628378429E-01
    1.0570130073E-01    1.0512182468E-01    1.0454534208E-01    1.0397183894E-01
    1.0340130133E-01    1.0283371534E-01    1.0226906717E-01    1.0170734303E-01
    1.0114852921E-01    1.0059261204E-01    1.0003957794E-01    9.9489413341E-02
    9.8942104756E-02    9.8397638747E-02    9.7856001929E-02    9.7317180974E-02
    9.6781162607E-02    9.6247933606E-02    9.5717480807E-02    9.5189791097E-02
    9.4664851415E-02    9.4142648758E-02    9.3623170173E-02    9.3106402761E-02
    9.2592333674E-02    9.2080950121E-02    9.1572239359E-02    9.1066188701E-02
    9.0562785508E-02    9.0062017197E-02    8.9563871235E-02    8.9068335139E-02
    8.8575396480E-02    8.8085042879E-02    8.7597262007E-02    8.7112041588E-02
    8.6629369396E-02    8.6149233253E-02    8.5671621034E-02    8.5196520663E-02
    8.4723920114E-02    8.4253807412E-02    8.3786170628E-02    8.3320997887E-02
    8.2858277359E-02    8.2397997266E-02    8.1940145877E-02    8.1484711510E-02
    8.1031682532E-02    8.0581047358E-02    8.0132794451E-02    7.9686912321E-02
    7.9243389529E-02    7.8802214679E-02    7.8363376427E-02    7.7926863472E-02
    7.7492664563E-02    7.7060768495E-02    7.6631164110E-02    7.6203840296E-02
    7.5778785987E-02    7.5355990165E-02    7.4935441857E-02    7.4517130135E-02
    7.4101044119E-02    7.3687172972E-02    7.3275505905E-02    7.2866032172E-02
    7.2458741073E-02    7.2053621954E-02    7.1650664203E-02    7.1249857257E-02
    7.0851190592E-02    7.0454653734E-02    7.0060236248E-02    6.9667927747E-02
    6.9277717885E-02    6.8889596362E-02    6.8503552919E-02    6.8119577343E-02
    6.7737659463E-02    6.7357789151E-02    6.6979956321E-02    6.6604150932E-02
    6.6230362985E-02    6.5858582521E-02    6.5488799627E-02    6.5121004430E-02
    6.4755187100E-02    6.4391337847E-02    6.4029446926E-02    6.3669504630E-02
    6.3311501297E-02    6.2955427304E-02    6.2601273069E-02    6.2249029053E-02
    6.1898685756E-02    6.1550233720E-02    6.1203663527E-02    6.0858965799E-02
    6.0516131200E-02    6.0175150432E-02    5.9836014239E-02    5.9498713403E-02
    5.9163238749E-02    5.8829581138E-02    5.8497731473E-02    5.8167680695E-02
    5.7839419785E-02    5.7512939762E-02    5.7188231687E-02    5.6865286655E-02
    5.6544095805E-02    5.6224650311E-02    5.5906941386E-02    5.5590960282E-02
    5.5276698290E-02    5.4964146738E-02    5.4653296991E-02    5.4344140453E-02
    5.4036668567E-02    5.3730872811E-02    5.3426744701E-02    5.3124275792E-02
    5.2823457675E-02    5.2524281977E-02    5.2226740365E-02    5.1930824538E-02
    5.1636526237E-02    5.1343837236E-02    5.1052749346E-02    5.0763254416E-02
    5.0475344329E-02    5.0189011005E-02    4.9904246400E-02    4.9621042506E-02
    4.9339391350E-02    4.9059284996E-02    4.8780715542E-02    4.8503675121E-02
    4.8228155903E-02    4.7954150091E-02    4.7681649925E-02    4.7410647678E-02
    4.7141135659E-02    4.6873106212E-02    4.6606551713E-02    4.6341464575E-02
    4.6077837245E-02    4.5815662202E-02    4.5554931961E-02    4.5295639071E-02
    4.5037776113E-02    4.4781335704E-02    4.4526310492E-02    4.4272693161E-02
    4.4020476426E-02    4.3769653037E-02    4.3520215776E-02    4.3272157458E-02
    4.3025470931E-02    4.2780149078E-02    4.2536184809E-02    4.2293571073E-02
    4.2052300847E-02    4.1812367143E-02    4.1573763002E-02    4.1336481499E-02
    4.1100515742E-02    4.0865858870E-02    4.0632504052E-02    4.0400444490E-02
    4.0169673418E-02    3.9940184101E-02    3.9711969835E-02    3.9485023947E-02
    3.9259339795E-02    3.9034910769E-02    3.8811730288E-02    3.8589791802E-02
    3.8369088795E-02    3.8149614776E-02    3.7931363288E-02    3.7714327904E-02
    3.7498502226E-02    3.7283879887E-02    3.7070454548E-02    3.6858219903E-02
    3.6647169673E-02    3.6437297610E-02    3.6228597495E-02    3.6021063139E-02
    3.5814688380E-02    3.5609467088E-02    3.5405393162E-02    3.5202460526E-02
    3.5000663138E-02    3.4799994982E-02    3.4600450071E-02    3.4402022446E-02
    3.4204706178E-02    3.4008495363E-02    3.3813384130E-02    3.3619366632E-02
    3.3426437052E-02    3.3234589600E-02    3.3043818515E-02    3.2854118061E-02
    3.2665482532E-02    3.2477906250E-02    3.2291383561E-02    3.2105908842E-02
    3.1921476494E-02    3.1738080948E-02    3.1555716659E-02    3.1374378110E-02
    3.1194059812E-02    3.1014756300E-02    3.0836462138E-02    3.0659171915E-02
    3.0482880247E-02    3.0307581775E-02    3.0133271167E-02    2.9959943117E-02
    2.9787592345E-02    2.9616213595E-02    2.9445801640E-02    2.9276351276E-02
    2.9107857325E-02    2.8940314635E-02    2.8773718077E-02    2.8608062551E-02
    2.8443342979E-02    2.8279554308E-02    2.8116691513E-02    2.7954749589E-02
    2.7793723560E-02    2.7633608472E-02    2.7474399396E-02    2.7316091427E-02
    2.7158679686E-02    2.7002159315E-02    2.6846525484E-02    2.6691773384E-02
    2.6537898230E-02    2.6384895262E-02    2.6232759743E-02    2.6081486959E-02
    2.5931072222E-02    2.5781510864E-02    2.5632798242E-02    2.5484929735E-02
    2.5337900748E-02    2.5191706705E-02    2.5046343056E-02    2.4901805271E-02
    2.4758088846E-02    2.4615189297E-02    2.4473102163E-02    2.4331823007E-02
    2.4191347411E-02    2.4051670983E-02    2.3912789350E-02    2.3774698163E-02
    2.3637393094E-02    2.3500869837E-02    2.3365124108E-02    2.3230151644E-02
    2.3095948205E-02    2.2962509570E-02    2.2829831542E-02    2.2697909944E-02
    2.2566740619E-02    2.2436319433E-02    2.2306642273E-02    2.2177705045E-02
    2.2049503678E-02    2.1922034121E-02    2.1795292342E-02    2.1669274331E-02
    2.1543976100E-02    2.1419393678E-02    2.1295523117E-02    2.1172360488E-02
    2.1049901882E-02    2.0928143410E-02    2.0807081204E-02    2.0686711415E-02
    2.0567030212E-02    2.0448033788E-02    2.0329718351E-02    2.0212080132E-02
    2.0095115378E-02    1.9978820359E-02    1.9863191361E-02    1.9748224691E-02
    1.9633916676E-02    1.9520263658E-02    1.9407262002E-02    1.9294908089E-02
    1.9183198322E-02    1.9072129119E-02    1.8961696918E-02    1.8851898176E-02
    1.8742729368E-02    1.8634186987E-02    1.8526267545E-02    1.8418967571E-02
    1.8312283613E-02    1.8206212236E-02    1.8100750024E-02    1.7995893578E-02
    1.7891639517E-02    1.7787984479E-02    1.7684925116E-02    1.7582458101E-02
    1.7480580122E-02    1.7379287887E-02    1.7278578119E-02    1.7178447559E-02
    1.7078892964E-02    1.6979911110E-02    1.6881498788E-02    1.6783652808E-02
    1.6686369994E-02    1.6589647189E-02    1.6493481252E-02    1.6397869057E-02
    1.6302807497E-02    1.6208293481E-02    1.6114323932E-02    1.6020895791E-02
    1.5928006015E-02    1.5835651578E-02    1.5743829467E-02    1.5652536689E-02
    1.5561770264E-02    1.5471527229E-02    1.5381804636E-02    1.5292599553E-02
    1.5203909063E-02    1.5115730266E-02    1.5028060276E-02    1.4940896223E-02
    1.4854235252E-02    1.4768074524E-02    1.4682411213E-02    1.4597242511E-02
    1.4512565623E-02    1.4428377770E-02    1.4344676186E-02    1.4261458122E-02
    1.4178720842E-02    1.4096461627E-02    1.4014677770E-02    1.3933366579E-02
    1.3852525379E-02    1.3772151505E-02    1.3692242309E-02    1.3612795159E-02
    1.3533807432E-02    1.3455276525E-02    1.3377199844E-02    1.3299574812E-02
    1.3222398866E-02    1.3145669454E-02    1.3069384040E-02    1.2993540102E-02
    1.2918135131E-02    1.2843166631E-02    1.2768632120E-02    1.2694529129E-02
    1.2620855204E-02    1.2547607902E-02    1.2474784795E-02    1.2402383468E-02
    1.2330401517E-02    1.2258836553E-02    1.2187686201E-02    1.2116948096E-02
    1.2046619889E-02    1.1976699241E-02    1.1907183827E-02    1.1838071336E-02
    1.1769359466E-02    1.1701045932E-02    1.1633128457E-02    1.1565604781E-02
    1.1498472652E-02    1.1431729833E-02    1.1365374100E-02    1.1299403238E-02
    1.1233815047E-02    1.1168607337E-02    1.1103777931E-02    1.1039324665E-02
    1.0975245384E-02    1.0911537949E-02    1.0848200228E-02    1.0785230104E-02
    1.0722625471E-02    1.0660384235E-02    1.0598504311E-02    1.0536983628E-02
    1.0475820126E-02    1.0415011757E-02    1.0354556481E-02    1.0294452274E-02
    1.0234697120E-02    1.0175289014E-02    1.0116225964E-02    1.0057505989E-02
    9.9991271159E-03    9.9410873860E-03    9.8833848498E-03    9.8260175690E-03
    9.7689836158E-03    9.7122810733E-03    9.6559080351E-03    9.5998626056E-03
    9.5441428995E-03    9.4887470421E-03    9.4336731691E-03    9.3789194265E-03
    9.3244839708E-03    9.2703649686E-03    9.2165605967E-03    9.1630690423E-03
    9.1098885023E-03    9.0570171841E-03    9.0044533048E-03    8.9521950915E-03
    8.9002407814E-03    8.8485886213E-03    8.7972368679E-03    8.7461837878E-03
    8.6954276570E-03    8.6449667614E-03    8.5947993964E-03    8.5449238670E-03
    8.4953384876E-03    8.4460415822E-03    8.3970314841E-03    8.3483065359E-03
    8.2998650898E-03    8.2517055068E-03    8.2038261575E-03    8.1562254214E-03
    8.1089016874E-03    8.0618533533E-03    8.0150788257E-03    7.9685765207E-03
    7.9223448627E-03    7.8763822856E-03    7.8306872316E-03    7.7852581520E-03
    7.7400935068E-03    7.6951917646E-03    7.6505514027E-03    7.6061709070E-03
    7.5620487719E-03    7.5181835006E-03    7.4745736042E-03    7.4312176029E-03
    7.3881140247E-03    7.3452614062E-03    7.3026582923E-03    7.2603032362E-03
    7.2181947991E-03    7.1763315505E-03    7.1347120679E-03    7.0933349371E-03
    7.0521987517E-03    7.0113021134E-03    6.9706436318E-03    6.9302219244E-03
    6.8900356167E-03    6.8500833416E-03    6.8103637404E-03    6.7708754616E-03
    6.7316171616E-03    6.6925875045E-03    6.6537851620E-03    6.6152088132E-03
    6.5768571450E-03    6.5387288515E-03    6.5008226344E-03    6.4631372029E-03
    6.4256712734E-03    6.3884235697E-03    6.3513928229E-03    6.3145777712E-03
    6.2779771604E-03    6.2415897429E-03    6.2054142788E-03    6.1694495349E-03
    6.1336942852E-03    6.0981473107E-03    6.0628073994E-03    6.0276733463E-03
    5.9927439531E-03    5.9580180286E-03    5.9234943882E-03    5.8891718544E-03
    5.8550492561E-03    5.8211254291E-03    5.7873992160E-03    5.7538694657E-03
    5.7205350341E-03    5.6873947833E-03    5.6544475823E-03    5.6216923064E-03
    5.5891278373E-03    5.5567530632E-03    5.5245668788E-03    5.4925681849E-03
    5.4607558890E-03    5.4291289046E-03    5.3976861514E-03    5.3664265556E-03
    5.3353490494E-03    5.3044525712E-03    5.2737360653E-03    5.2431984826E-03
    5.2128387795E-03    5.1826559187E-03    5.1526488689E-03    5.1228166046E-03
    5.0931581064E-03    5.0636723605E-03    5.0343583593E-03    5.0052151007E-03
    4.9762415887E-03    4.9474368328E-03    4.9187998483E-03    4.8903296563E-03
    4.8620252833E-03    4.8338857618E-03    4.8059101294E-03    4.7780974298E-03
    4.7504467119E-03    4.7229570302E-03    4.6956274446E-03    4.6684570206E-03
    4.6414448289E-03    4.6145899458E-03    4.5878914527E-03    4.5613484366E-03
    4.5349599896E-03    4.5087252090E-03    4.4826431977E-03    4.4567130634E-03
    4.4309339191E-03    4.4053048830E-03    4.3798250783E-03    4.3544936335E-03
    4.3293096820E-03    4.3042723622E-03    4.2793808176E-03    4.2546341966E-03
    4.2300316526E-03    4.2055723439E-03    4.1812554336E-03    4.1570800898E-03
    4.1330454854E-03    4.1091507980E-03    4.0853952101E-03    4.0617779090E-03
    4.0382980866E-03    4.0149549394E-03    3.9917476689E-03    3.9686754809E-03
    3.9457375861E-03    3.9229331996E-03    3.9002615412E-03    3.8777218351E-03
    3.8553133102E-03    3.8330351996E-03    3.8108867413E-03    3.7888671772E-03
    3.7669757542E-03    3.7452117231E-03    3.7235743393E-03    3.7020628625E-03
    3.6806765567E-03    3.6594146901E-03    3.6382765355E-03    3.6172613695E-03
    3.5963684732E-03    3.5755971318E-03    3.5549466346E-03    3.5344162753E-03
    3.5140053514E-03    3.4937131647E-03    3.4735390210E-03    3.4534822301E-03
    3.4335421061E-03    3.4137179667E-03    3.3940091338E-03    3.3744149334E-03
    3.3549346951E-03    3.3355677527E-03    3.3163134437E-03    3.2971711096E-03
    3.2781400957E-03    3.2592197511E-03    3.2404094288E-03    3.2217084854E-03
    3.2031162813E-03    3.1846321809E-03    3.1662555520E-03    3.1479857663E-03
    3.1298221989E-03    3.1117642289E-03    3.0938112388E-03    3.0759626148E-03
    3.0582177467E-03    3.0405760278E-03    3.0230368549E-03    3.0055996286E-03
    2.9882637526E-03    2.9710286345E-03    2.9538936851E-03    2.9368583186E-03
    2.9199219529E-03    2.9030840091E-03    2.8863439118E-03    2.8697010888E-03
    2.8531549715E-03    2.8367049943E-03    2.8203505952E-03    2.8040912155E-03
    2.7879262994E-03    2.7718552948E-03    2.7558776526E-03    2.7399928270E-03
    2.7242002753E-03    2.7084994580E-03    2.6928898389E-03    2.6773708847E-03
    2.6619420655E-03    2.6466028543E-03    2.6313527272E-03    2.6161911636E-03
    2.6011176455E-03    2.5861316584E-03    2.5712326906E-03    2.5564202334E-03
    2.5416937810E-03    2.5270528308E-03    2.5124968830E-03    2.4980254406E-03
    2.4836380099E-03    2.4693340996E-03    2.4551132216E-03    2.4409748906E-03
    2.4269186242E-03    2.4129439427E-03    2.3990503693E-03    2.3852374299E-03
    2.3715046533E-03    2.3578515709E-03    2.3442777172E-03    2.3307826290E-03
    2.3173658460E-03    2.3040269108E-03    2.2907653682E-03    2.2775807662E-03
    2.2644726550E-03    2.2514405878E-03    2.2384841203E-03    2.2256028106E-03
    2.2127962197E-03    2.2000639110E-03    2.1874054504E-03    2.1748204067E-03
    2.1623083507E-03    2.1498688562E-03    2.1375014991E-03    2.1252058582E-03
    2.1129815144E-03    2.1008280513E-03    2.0887450548E-03    2.0767321133E-03
    2.0647888176E-03    2.0529147610E-03    2.0411095389E-03    2.0293727494E-03
    2.0177039928E-03    2.0061028718E-03    1.9945689913E-03    1.9831019586E-03
    1.9717013835E-03    1.9603668778E-03    1.9490980557E-03    1.9378945336E-03
    1.9267559303E-03    1.9156818667E-03    1.9046719659E-03    1.8937258534E-03
    1.8828431567E-03    1.8720235056E-03    1.8612665321E-03    1.8505718701E-03
    1.8399391561E-03    1.8293680282E-03    1.8188581272E-03    1.8084090955E-03
    1.7980205778E-03    1.7876922211E-03    1.7774236741E-03    1.7672145877E-03
    1.7570646150E-03    1.7469734109E-03    1.7369406326E-03    1.7269659390E-03
    1.7170489912E-03    1.7071894523E-03    1.6973869873E-03    1.6876412631E-03
    1.6779519487E-03    1.6683187150E-03    1.6587412348E-03    1.6492191829E-03
    1.6397522359E-03    1.6303400723E-03    1.6209823726E-03    1.6116788191E-03
    1.6024290959E-03    1.5932328891E-03    1.5840898866E-03    1.5749997780E-03
    1.5659622549E-03    1.5569770106E-03    1.5480437402E-03    1.5391621407E-03
    1.5303319108E-03    1.5215527509E-03    1.5128243632E-03    1.5041464518E-03
    1.4955187224E-03    1.4869408823E-03    1.4784126408E-03    1.4699337087E-03
    1.4615037985E-03    1.4531226246E-03    1.4447899028E-03    1.4365053508E-03
    1.4282686877E-03    1.4200796345E-03    1.4119379137E-03    1.4038432495E-03
    1.3957953677E-03    1.3877939956E-03    1.3798388622E-03    1.3719296982E-03
    1.3640662356E-03    1.3562482083E-03    1.3484753514E-03    1.3407474019E-03
    1.3330640981E-03    1.3254251801E-03    1.3178303891E-03    1.3102794682E-03
    1.3027721619E-03    1.2953082162E-03    1.2878873785E-03    1.2805093977E-03
    1.2731740243E-03    1.2658810102E-03    1.2586301087E-03    1.2514210746E-03
    1.2442536641E-03    1.2371276350E-03    1.2300427461E-03    1.2229987581E-03
    1.2159954329E-03    1.2090325337E-03    1.2021098253E-03    1.1952270736E-03
    1.1883840461E-03    1.1815805116E-03    1.1748162403E-03    1.1680910036E-03
    1.1614045745E-03    1.1547567270E-03    1.1481472367E-03    1.1415758804E-03
    1.1350424362E-03    1.1285466835E-03    1.1220884031E-03    1.1156673769E-03
    1.1092833882E-03    1.1029362216E-03    1.0966256629E-03    1.0903514992E-03
    1.0841135187E-03    1.0779115111E-03    1.0717452671E-03    1.0656145787E-03
    1.0595192392E-03    1.0534590431E-03    1.0474337859E-03    1.0414432646E-03
    1.0354872772E-03    1.0295656228E-03    1.0236781020E-03    1.0178245162E-03
    1.0120046683E-03    1.0062183621E-03    1.0004654026E-03    9.9474559606E-04
    9.8905874975E-04    9.8340467215E-04    9.7778317281E-04    9.7219406242E-04
    9.6663715277E-04    9.6111225676E-04    9.5561918839E-04    9.5015776274E-04
    9.4472779596E-04    9.3932910531E-04    9.3396150910E-04    9.2862482670E-04
    9.2331887856E-04    9.1804348615E-04    9.1279847201E-04    9.0758365971E-04
    9.0239887385E-04    8.9724394007E-04    8.9211868502E-04    8.8702293637E-04
    8.8195652280E-04    8.7691927398E-04    8.7191102059E-04    8.6693159430E-04
    8.6198082776E-04    8.5705855461E-04    8.5216460946E-04    8.4729882788E-04
    8.4246104640E-04    8.3765110253E-04    8.3286883472E-04    8.2811408234E-04
    8.2338668573E-04    8.1868648616E-04    8.1401332583E-04    8.0936704785E-04
    8.0474749626E-04    8.0015451600E-04    7.9558795293E-04    7.9104765382E-04
    7.8653346631E-04    7.8204523896E-04    7.7758282118E-04    7.7314606330E-04
    7.6873481651E-04    7.6434893286E-04    7.5998826527E-04    7.5565266753E-04
    7.5134199429E-04    7.4705610102E-04    7.4279484407E-04    7.3855808061E-04
    7.3434566864E-04    7.3015746702E-04    7.2599333540E-04    7.2185313427E-04
    7.1773672494E-04    7.1364396951E-04    7.0957473091E-04    7.0552887285E-04
    7.0150625985E-04    6.9750675722E-04    6.9353023106E-04    6.8957654824E-04
    6.8564557643E-04    6.8173718405E-04    6.7785124030E-04    6.7398761514E-04
    6.7014617931E-04    6.6632680427E-04    6.6252936226E-04    6.5875372625E-04
    6.5499976996E-04    6.5126736785E-04    6.4755639511E-04    6.4386672765E-04
    6.4019824212E-04    6.3655081589E-04    6.3292432703E-04    6.2931865433E-04
    6.2573367731E-04    6.2216927615E-04    6.1862533177E-04    6.1510172576E-04
    6.1159834041E-04    6.0811505871E-04    6.0465176431E-04    6.0120834155E-04
    5.9778467545E-04    5.9438065169E-04    5.9099615664E-04    5.8763107730E-04
    5.8428530135E-04    5.8095871713E-04    5.7765121362E-04    5.7436268045E-04
    5.7109300790E-04    5.6784208689E-04    5.6460980896E-04    5.6139606631E-04
    5.5820075175E-04    5.5502375872E-04    5.5186498128E-04    5.4872431411E-04
    5.4560165250E-04    5.4249689237E-04    5.3940993022E-04    5.3634066318E-04
    5.3328898894E-04    5.3025480584E-04    5.2723801277E-04    5.2423850923E-04
    5.2125619531E-04    5.1829097165E-04    5.1534273952E-04    5.1241140072E-04
    5.0949685765E-04    5.0659901327E-04    5.0371777110E-04    5.0085303524E-04
    4.9800471033E-04    4.9517270157E-04    4.9235691472E-04    4.8955725609E-04
    4.8677363252E-04    4.8400595141E-04    4.8125412070E-04    4.7851804885E-04
    4.7579764487E-04    4.7309281828E-04    4.7040347916E-04    4.6772953809E-04
    4.6507090616E-04    4.6242749501E-04    4.5979921678E-04    4.5718598410E-04
    4.5458771015E-04    4.5200430858E-04    4.4943569356E-04    4.4688177976E-04
    4.4434248235E-04    4.4181771698E-04    4.3930739979E-04    4.3681144743E-04
    4.3432977702E-04    4.3186230617E-04    4.2940895295E-04    4.2696963593E-04
    4.2454427415E-04    4.2213278711E-04    4.1973509479E-04    4.1735111762E-04
    4.1498077651E-04    4.1262399283E-04    4.1028068840E-04    4.0795078549E-04
    4.0563420683E-04    4.0333087560E-04    4.0104071542E-04    3.9876365037E-04
    3.9649960496E-04    3.9424850413E-04    3.9201027327E-04    3.8978483821E-04
    3.8757212519E-04    3.8537206090E-04    3.8318457244E-04    3.8100958735E-04
    3.7884703357E-04    3.7669683948E-04    3.7455893387E-04    3.7243324593E-04
    3.7031970529E-04    3.6821824196E-04    3.6612878637E-04    3.6405126936E-04
    3.6198562216E-04    3.5993177641E-04    3.5788966414E-04    3.5585921778E-04
    3.5384037015E-04    3.5183305445E-04    3.4983720429E-04    3.4785275365E-04
    3.4587963690E-04    3.4391778879E-04    3.4196714445E-04    3.4002763938E-04
    3.3809920945E-04    3.3618179093E-04    3.3427532044E-04    3.3237973496E-04
    3.3049497185E-04    3.2862096883E-04    3.2675766399E-04    3.2490499576E-04
    3.2306290294E-04    3.2123132468E-04    3.1941020050E-04    3.1759947025E-04
    3.1579907414E-04    3.1400895271E-04    3.1222904688E-04    3.1045929789E-04
    3.0869964730E-04    3.0695003706E-04    3.0521040941E-04    3.0348070696E-04
    3.0176087262E-04    3.0005084966E-04    2.9835058167E-04    2.9666001255E-04
    2.9497908655E-04    2.9330774824E-04    2.9164594249E-04    2.8999361452E-04
    2.8835070984E-04    2.8671717430E-04    2.8509295404E-04    2.8347799553E-04
    2.8187224554E-04    2.8027565116E-04    2.7868815979E-04    2.7710971910E-04
    2.7554027711E-04    2.7397978212E-04    2.7242818271E-04    2.7088542780E-04
    2.6935146657E-04    2.6782624851E-04    2.6630972341E-04    2.6480184133E-04
    2.6330255264E-04    2.6181180798E-04    2.6032955829E-04    2.5885575479E-04
    2.5739034898E-04    2.5593329264E-04
   </PP_CHI.3>
   <PP_CHI.4
       type="real"
       size="1554"
       columns="4"
       index="4"
       occupation=" 2.000"
       pseudo_energy="   -0.3393977043E+00"
       label="4S"
       l="0" >
    5.7105015161E-13   -2.5541813305E-03   -5.1140760847E-03   -7.6853680375E-03
   -1.0273681768E-02   -1.2884553314E-02   -1.5523401138E-02   -1.8195497496E-02
   -2.0905940319E-02   -2.3659625717E-02   -2.6461221192E-02   -2.9315139687E-02
   -3.2225514555E-02   -3.5196175571E-02   -3.8230626079E-02   -4.1332021379E-02
   -4.4503148459E-02   -4.7746407173E-02   -5.1063792951E-02   -5.4456881146E-02
   -5.7926813090E-02   -6.1474283960E-02   -6.5099532504E-02   -6.8802332724E-02
   -7.2581987540E-02   -7.6437324518E-02   -8.0366693668E-02   -8.4367967376E-02
   -8.8438542442E-02   -9.2575344274E-02   -9.6774833186E-02   -1.0103301281E-01
   -1.0534544058E-01   -1.0970724021E-01   -1.1411311614E-01   -1.1855736988E-01
   -1.2303391816E-01   -1.2753631268E-01   -1.3205776163E-01   -1.3659115248E-01
   -1.4112907631E-01   -1.4566385317E-01   -1.5018755868E-01   -1.5469205143E-01
   -1.5916900124E-01   -1.6360991802E-01   -1.6800618106E-01   -1.7234906879E-01
   -1.7662978853E-01   -1.8083950643E-01   -1.8496937724E-01   -1.8901057381E-01
   -1.9295431629E-01   -1.9679190076E-01   -2.0051472734E-01   -2.0411432746E-01
   -2.0758239049E-01   -2.1091078932E-01   -2.1409160502E-01   -2.1711715050E-01
   -2.1997999297E-01   -2.2267297534E-01   -2.2518923629E-01   -2.2752222926E-01
   -2.2966574000E-01   -2.3161390294E-01   -2.3336121619E-01   -2.3490255523E-01
   -2.3623318526E-01   -2.3734877217E-01   -2.3824539221E-01   -2.3891954025E-01
   -2.3936813671E-01   -2.3958853300E-01   -2.3957851567E-01   -2.3933630934E-01
   -2.3886057813E-01   -2.3815042595E-01   -2.3720539528E-01   -2.3602546471E-01
   -2.3461104520E-01   -2.3296297493E-01   -2.3108251293E-01   -2.2897133142E-01
   -2.2663150683E-01   -2.2406550965E-01   -2.2127619298E-01   -2.1826677998E-01
   -2.1504085009E-01   -2.1160232422E-01   -2.0795544890E-01   -2.0410477945E-01
   -2.0005516226E-01   -1.9581171626E-01   -1.9137981366E-01   -1.8676506000E-01
   -1.8197327370E-01   -1.7701046514E-01   -1.7188281536E-01   -1.6659665461E-01
   -1.6115844072E-01   -1.5557473743E-01   -1.4985219292E-01   -1.4399751849E-01
   -1.3801746762E-01   -1.3191881545E-01   -1.2570833879E-01   -1.1939279688E-01
   -1.1297891274E-01   -1.0647335550E-01   -9.9882723545E-02   -9.3213528647E-02
   -8.6472181130E-02   -7.9664976101E-02   -7.2798080774E-02   -6.5877522909E-02
   -5.8909180373E-02   -5.1898771816E-02   -4.4851848446E-02   -3.7773786867E-02
   -3.0669782943E-02   -2.3544846647E-02   -1.6403797818E-02   -9.2512627786E-03
   -2.0916717311E-03    5.0707431408E-03    1.2231948944E-02    1.9388112804E-02
    2.6535602122E-02    3.3670984449E-02    4.0791027050E-02    4.7892696217E-02
    5.4973156417E-02    6.2029769299E-02    6.9060092605E-02    7.6061879037E-02
    8.3033073585E-02    8.9971784126E-02    9.6876234860E-02    1.0374475767E-01
    1.1057578977E-01    1.1736787139E-01    1.2411964351E-01    1.3082984538E-01
    1.3749731205E-01    1.4412097168E-01    1.5069984281E-01    1.5723303137E-01
    1.6371972759E-01    1.7015920258E-01    1.7655080482E-01    1.8289395629E-01
    1.8918814840E-01    1.9543293758E-01    2.0162794066E-01    2.0777282989E-01
    2.1386732776E-01    2.1991120148E-01    2.2590425733E-01    2.3184633469E-01
    2.3773730011E-01    2.4357704119E-01    2.4936546055E-01    2.5510246996E-01
    2.6078798474E-01    2.6642191848E-01    2.7200417842E-01    2.7753466145E-01
    2.8301325090E-01    2.8843981444E-01    2.9381420284E-01    2.9913625008E-01
    3.0440577445E-01    3.0962258099E-01    3.1478646493E-01    3.1989721615E-01
    3.2495462447E-01    3.2995848556E-01    3.3490860710E-01    3.3980481516E-01
    3.4464696019E-01    3.4943492261E-01    3.5416861753E-01    3.5884799848E-01
    3.6347305990E-01    3.6804383828E-01    3.7256041184E-01    3.7702289875E-01
    3.8143145393E-01    3.8578626455E-01    3.9008754431E-01    3.9433552693E-01
    3.9853045882E-01    4.0267259157E-01    4.0676217436E-01    4.1079944678E-01
    4.1478463248E-01    4.1871793390E-01    4.2259952848E-01    4.2642956660E-01
    4.3020817137E-01    4.3393544032E-01    4.3761144883E-01    4.4123625852E-01
    4.4480993802E-01    4.4833257515E-01    4.5180427518E-01    4.5522515984E-01
    4.5859536606E-01    4.6191504483E-01    4.6518436007E-01    4.6840348769E-01
    4.7157261451E-01    4.7469193744E-01    4.7776166255E-01    4.8078200428E-01
    4.8375318470E-01    4.8667543271E-01    4.8954898343E-01    4.9237407751E-01
    4.9515096055E-01    4.9787988247E-01    5.0056109702E-01    5.0319486124E-01
    5.0578143495E-01    5.0832108029E-01    5.1081406132E-01    5.1326064352E-01
    5.1566109345E-01    5.1801567833E-01    5.2032466567E-01    5.2258832293E-01
    5.2480691718E-01    5.2698071475E-01    5.2910998091E-01    5.3119497958E-01
    5.3323597302E-01    5.3523322153E-01    5.3718698316E-01    5.3909751342E-01
    5.4096506564E-01    5.4278989392E-01    5.4457225566E-01    5.4631241137E-01
    5.4801062446E-01    5.4966716114E-01    5.5128229044E-01    5.5285628426E-01
    5.5438941770E-01    5.5588196934E-01    5.5733422181E-01    5.5874646231E-01
    5.6011898328E-01    5.6145208303E-01    5.6274606643E-01    5.6400124549E-01
    5.6521793988E-01    5.6639647730E-01    5.6753719379E-01    5.6864043379E-01
    5.6970655005E-01    5.7073590344E-01    5.7172886247E-01    5.7268580275E-01
    5.7360710627E-01    5.7449316055E-01    5.7534435775E-01    5.7616109364E-01
    5.7694376663E-01    5.7769277667E-01    5.7840852432E-01    5.7909140968E-01
    5.7974183154E-01    5.8036018649E-01    5.8094686817E-01    5.8150226655E-01
    5.8202676739E-01    5.8252075173E-01    5.8298459544E-01    5.8341866897E-01
    5.8382333706E-01    5.8419895861E-01    5.8454588657E-01    5.8486446793E-01
    5.8515504373E-01    5.8541794912E-01    5.8565351348E-01    5.8586206056E-01
    5.8604390865E-01    5.8619937073E-01    5.8632875471E-01    5.8643236363E-01
    5.8651049584E-01    5.8656344527E-01    5.8659150161E-01    5.8659495053E-01
    5.8657407390E-01    5.8652914997E-01    5.8646045362E-01    5.8636825645E-01
    5.8625282706E-01    5.8611443116E-01    5.8595333171E-01    5.8576978911E-01
    5.8556406134E-01    5.8533640402E-01    5.8508707059E-01    5.8481631240E-01
    5.8452437879E-01    5.8421151718E-01    5.8387797317E-01    5.8352399059E-01
    5.8314981157E-01    5.8275567660E-01    5.8234182457E-01    5.8190849282E-01
    5.8145591718E-01    5.8098433198E-01    5.8049397013E-01    5.7998506308E-01
    5.7945784089E-01    5.7891253220E-01    5.7834936428E-01    5.7776856303E-01
    5.7717035297E-01    5.7655495728E-01    5.7592259776E-01    5.7527349484E-01
    5.7460786762E-01    5.7392593382E-01    5.7322790979E-01    5.7251401053E-01
    5.7178444964E-01    5.7103943936E-01    5.7027919054E-01    5.6950391263E-01
    5.6871381369E-01    5.6790910037E-01    5.6708997791E-01    5.6625665014E-01
    5.6540931944E-01    5.6454818678E-01    5.6367345170E-01    5.6278531228E-01
    5.6188396516E-01    5.6096960551E-01    5.6004242706E-01    5.5910262208E-01
    5.5815038136E-01    5.5718589421E-01    5.5620934850E-01    5.5522093059E-01
    5.5422082537E-01    5.5320921627E-01    5.5218628520E-01    5.5115221263E-01
    5.5010717751E-01    5.4905135732E-01    5.4798492806E-01    5.4690806425E-01
    5.4582093891E-01    5.4472372360E-01    5.4361658839E-01    5.4249970187E-01
    5.4137323118E-01    5.4023734197E-01    5.3909219841E-01    5.3793796324E-01
    5.3677479771E-01    5.3560286164E-01    5.3442231337E-01    5.3323330982E-01
    5.3203600644E-01    5.3083055728E-01    5.2961711494E-01    5.2839583058E-01
    5.2716685397E-01    5.2593033344E-01    5.2468641593E-01    5.2343524698E-01
    5.2217697073E-01    5.2091172994E-01    5.1963966597E-01    5.1836091883E-01
    5.1707562715E-01    5.1578392821E-01    5.1448595795E-01    5.1318185093E-01
    5.1187174042E-01    5.1055575832E-01    5.0923403524E-01    5.0790670046E-01
    5.0657388197E-01    5.0523570645E-01    5.0389229931E-01    5.0254378465E-01
    5.0119028533E-01    4.9983192293E-01    4.9846881779E-01    4.9710108897E-01
    4.9572885433E-01    4.9435223047E-01    4.9297133280E-01    4.9158627549E-01
    4.9019717151E-01    4.8880413264E-01    4.8740726948E-01    4.8600669144E-01
    4.8460250675E-01    4.8319482250E-01    4.8178374461E-01    4.8036937787E-01
    4.7895182591E-01    4.7753119126E-01    4.7610757531E-01    4.7468107835E-01
    4.7325179956E-01    4.7181983702E-01    4.7038528775E-01    4.6894824766E-01
    4.6750881161E-01    4.6606707340E-01    4.6462312577E-01    4.6317706042E-01
    4.6172896801E-01    4.6027893818E-01    4.5882705954E-01    4.5737341970E-01
    4.5591810525E-01    4.5446120181E-01    4.5300279399E-01    4.5154296543E-01
    4.5008179880E-01    4.4861937580E-01    4.4715577719E-01    4.4569108277E-01
    4.4422537141E-01    4.4275872103E-01    4.4129120864E-01    4.3982291034E-01
    4.3835390131E-01    4.3688425583E-01    4.3541404729E-01    4.3394334819E-01
    4.3247223016E-01    4.3100076396E-01    4.2952901948E-01    4.2805706575E-01
    4.2658497095E-01    4.2511280244E-01    4.2364062673E-01    4.2216850949E-01
    4.2069651560E-01    4.1922470911E-01    4.1775315326E-01    4.1628191051E-01
    4.1481104250E-01    4.1334061012E-01    4.1187067345E-01    4.1040129183E-01
    4.0893252380E-01    4.0746442717E-01    4.0599705900E-01    4.0453047559E-01
    4.0306473252E-01    4.0159988461E-01    4.0013598599E-01    3.9867309006E-01
    3.9721124947E-01    3.9575051621E-01    3.9429094160E-01    3.9283257621E-01
    3.9137546996E-01    3.8991967206E-01    3.8846523108E-01    3.8701219488E-01
    3.8556061070E-01    3.8411052511E-01    3.8266198401E-01    3.8121503270E-01
    3.7976971579E-01    3.7832607730E-01    3.7688416061E-01    3.7544400848E-01
    3.7400566306E-01    3.7256916587E-01    3.7113455786E-01    3.6970187936E-01
    3.6827117011E-01    3.6684246928E-01    3.6541581545E-01    3.6399124661E-01
    3.6256880019E-01    3.6114851308E-01    3.5973042157E-01    3.5831456142E-01
    3.5690096785E-01    3.5548967550E-01    3.5408071851E-01    3.5267413047E-01
    3.5126994444E-01    3.4986819296E-01    3.4846890806E-01    3.4707212125E-01
    3.4567786352E-01    3.4428616538E-01    3.4289705683E-01    3.4151056737E-01
    3.4012672601E-01    3.3874556130E-01    3.3736710129E-01    3.3599137356E-01
    3.3461840521E-01    3.3324822290E-01    3.3188085280E-01    3.3051632065E-01
    3.2915465171E-01    3.2779587082E-01    3.2644000237E-01    3.2508707028E-01
    3.2373709809E-01    3.2239010888E-01    3.2104612529E-01    3.1970516957E-01
    3.1836726353E-01    3.1703242858E-01    3.1570068571E-01    3.1437205553E-01
    3.1304655821E-01    3.1172421355E-01    3.1040504096E-01    3.0908905945E-01
    3.0777628765E-01    3.0646674380E-01    3.0516044578E-01    3.0385741109E-01
    3.0255765685E-01    3.0126119984E-01    2.9996805645E-01    2.9867824273E-01
    2.9739177436E-01    2.9610866670E-01    2.9482893473E-01    2.9355259311E-01
    2.9227965614E-01    2.9101013781E-01    2.8974405174E-01    2.8848141127E-01
    2.8722222937E-01    2.8596651872E-01    2.8471429166E-01    2.8346556022E-01
    2.8222033613E-01    2.8097863080E-01    2.7974045533E-01    2.7850582054E-01
    2.7727473692E-01    2.7604721469E-01    2.7482326377E-01    2.7360289379E-01
    2.7238611409E-01    2.7117293374E-01    2.6996336152E-01    2.6875740593E-01
    2.6755507521E-01    2.6635637731E-01    2.6516131994E-01    2.6396991052E-01
    2.6278215622E-01    2.6159806395E-01    2.6041764037E-01    2.5924089187E-01
    2.5806782461E-01    2.5689844450E-01    2.5573275718E-01    2.5457076808E-01
    2.5341248238E-01    2.5225790503E-01    2.5110704073E-01    2.4995989396E-01
    2.4881646898E-01    2.4767676980E-01    2.4654080025E-01    2.4540856389E-01
    2.4428006410E-01    2.4315530402E-01    2.4203428660E-01    2.4091701456E-01
    2.3980349043E-01    2.3869371652E-01    2.3758769495E-01    2.3648542764E-01
    2.3538691629E-01    2.3429216243E-01    2.3320116739E-01    2.3211393231E-01
    2.3103045813E-01    2.2995074563E-01    2.2887479538E-01    2.2780260779E-01
    2.2673418307E-01    2.2566952126E-01    2.2460862224E-01    2.2355148571E-01
    2.2249811119E-01    2.2144849804E-01    2.2040264544E-01    2.1936055244E-01
    2.1832221790E-01    2.1728764053E-01    2.1625681887E-01    2.1522975133E-01
    2.1420643614E-01    2.1318687139E-01    2.1217105503E-01    2.1115898485E-01
    2.1015065849E-01    2.0914607346E-01    2.0814522712E-01    2.0714811670E-01
    2.0615473928E-01    2.0516509180E-01    2.0417917110E-01    2.0319697383E-01
    2.0221849657E-01    2.0124373573E-01    2.0027268761E-01    1.9930534838E-01
    1.9834171408E-01    1.9738178066E-01    1.9642554391E-01    1.9547299952E-01
    1.9452414306E-01    1.9357897000E-01    1.9263747567E-01    1.9169965532E-01
    1.9076550406E-01    1.8983501690E-01    1.8890818877E-01    1.8798501445E-01
    1.8706548866E-01    1.8614960599E-01    1.8523736093E-01    1.8432874789E-01
    1.8342376117E-01    1.8252239497E-01    1.8162464342E-01    1.8073050052E-01
    1.7983996020E-01    1.7895301630E-01    1.7806966258E-01    1.7718989269E-01
    1.7631370022E-01    1.7544107864E-01    1.7457202138E-01    1.7370652177E-01
    1.7284457304E-01    1.7198616837E-01    1.7113130085E-01    1.7027996350E-01
    1.6943214926E-01    1.6858785099E-01    1.6774706149E-01    1.6690977348E-01
    1.6607597962E-01    1.6524567250E-01    1.6441884462E-01    1.6359548845E-01
    1.6277559638E-01    1.6195916071E-01    1.6114617372E-01    1.6033662760E-01
    1.5953051450E-01    1.5872782650E-01    1.5792855561E-01    1.5713269380E-01
    1.5634023298E-01    1.5555116501E-01    1.5476548169E-01    1.5398317477E-01
    1.5320423595E-01    1.5242865686E-01    1.5165642912E-01    1.5088754427E-01
    1.5012199382E-01    1.4935976922E-01    1.4860086188E-01    1.4784526316E-01
    1.4709296440E-01    1.4634395688E-01    1.4559823182E-01    1.4485578045E-01
    1.4411659390E-01    1.4338066332E-01    1.4264797977E-01    1.4191853431E-01
    1.4119231795E-01    1.4046932167E-01    1.3974953640E-01    1.3903295307E-01
    1.3831956254E-01    1.3760935566E-01    1.3690232325E-01    1.3619845609E-01
    1.3549774494E-01    1.3480018053E-01    1.3410575356E-01    1.3341445470E-01
    1.3272627461E-01    1.3204120390E-01    1.3135923318E-01    1.3068035303E-01
    1.3000455399E-01    1.2933182660E-01    1.2866216137E-01    1.2799554879E-01
    1.2733197933E-01    1.2667144345E-01    1.2601393157E-01    1.2535943411E-01
    1.2470794147E-01    1.2405944403E-01    1.2341393217E-01    1.2277139623E-01
    1.2213182654E-01    1.2149521344E-01    1.2086154724E-01    1.2023081823E-01
    1.1960301671E-01    1.1897813294E-01    1.1835615719E-01    1.1773707973E-01
    1.1712089079E-01    1.1650758062E-01    1.1589713945E-01    1.1528955749E-01
    1.1468482496E-01    1.1408293208E-01    1.1348386904E-01    1.1288762605E-01
    1.1229419330E-01    1.1170356097E-01    1.1111571926E-01    1.1053065834E-01
    1.0994836840E-01    1.0936883961E-01    1.0879206215E-01    1.0821802619E-01
    1.0764672192E-01    1.0707813950E-01    1.0651226910E-01    1.0594910092E-01
    1.0538862511E-01    1.0483083186E-01    1.0427571136E-01    1.0372325378E-01
    1.0317344931E-01    1.0262628814E-01    1.0208176047E-01    1.0153985649E-01
    1.0100056641E-01    1.0046388044E-01    9.9929788787E-02    9.9398281677E-02
    9.8869349335E-02    9.8342981995E-02    9.7819169898E-02    9.7297903293E-02
    9.6779172435E-02    9.6262967590E-02    9.5749279032E-02    9.5238097042E-02
    9.4729411913E-02    9.4223213947E-02    9.3719493456E-02    9.3218240763E-02
    9.2719446200E-02    9.2223100112E-02    9.1729192856E-02    9.1237714798E-02
    9.0748656319E-02    9.0262007812E-02    8.9777759680E-02    8.9295902342E-02
    8.8816426229E-02    8.8339321787E-02    8.7864579474E-02    8.7392189764E-02
    8.6922143144E-02    8.6454430116E-02    8.5989041198E-02    8.5525966923E-02
    8.5065197839E-02    8.4606724510E-02    8.4150537516E-02    8.3696627454E-02
    8.3244984937E-02    8.2795600595E-02    8.2348465076E-02    8.1903569042E-02
    8.1460903177E-02    8.1020458180E-02    8.0582224769E-02    8.0146193679E-02
    7.9712355665E-02    7.9280701499E-02    7.8851221974E-02    7.8423907901E-02
    7.7998750109E-02    7.7575739447E-02    7.7154866787E-02    7.6736123015E-02
    7.6319499042E-02    7.5904985796E-02    7.5492574228E-02    7.5082255307E-02
    7.4674020025E-02    7.4267859394E-02    7.3863764446E-02    7.3461726237E-02
    7.3061735841E-02    7.2663784356E-02    7.2267862901E-02    7.1873962616E-02
    7.1482074666E-02    7.1092190234E-02    7.0704300529E-02    7.0318396780E-02
    6.9934470239E-02    6.9552512183E-02    6.9172513908E-02    6.8794466736E-02
    6.8418362012E-02    6.8044191102E-02    6.7671945397E-02    6.7301616312E-02
    6.6933195284E-02    6.6566673775E-02    6.6202043270E-02    6.5839295279E-02
    6.5478421334E-02    6.5119412994E-02    6.4762261839E-02    6.4406959475E-02
    6.4053497534E-02    6.3701867669E-02    6.3352061561E-02    6.3004070913E-02
    6.2657887453E-02    6.2313502937E-02    6.1970909141E-02    6.1630097871E-02
    6.1291060954E-02    6.0953790244E-02    6.0618277620E-02    6.0284514987E-02
    5.9952494274E-02    5.9622207436E-02    5.9293646454E-02    5.8966803333E-02
    5.8641670105E-02    5.8318238827E-02    5.7996501583E-02    5.7676450480E-02
    5.7358077654E-02    5.7041375264E-02    5.6726335497E-02    5.6412950564E-02
    5.6101212704E-02    5.5791114180E-02    5.5482647283E-02    5.5175804328E-02
    5.4870577659E-02    5.4566959643E-02    5.4264942674E-02    5.3964519174E-02
    5.3665681589E-02    5.3368422392E-02    5.3072734084E-02    5.2778609189E-02
    5.2486040259E-02    5.2195019873E-02    5.1905540635E-02    5.1617595177E-02
    5.1331176156E-02    5.1046276255E-02    5.0762888185E-02    5.0481004682E-02
    5.0200618509E-02    4.9921722455E-02    4.9644309336E-02    4.9368371995E-02
    4.9093903299E-02    4.8820896143E-02    4.8549343450E-02    4.8279238166E-02
    4.8010573266E-02    4.7743341751E-02    4.7477536646E-02    4.7213151006E-02
    4.6950177911E-02    4.6688610465E-02    4.6428441802E-02    4.6169665080E-02
    4.5912273484E-02    4.5656260226E-02    4.5401618542E-02    4.5148341698E-02
    4.4896422981E-02    4.4645855710E-02    4.4396633227E-02    4.4148748899E-02
    4.3902196122E-02    4.3656968317E-02    4.3413058930E-02    4.3170461435E-02
    4.2929169331E-02    4.2689176142E-02    4.2450475420E-02    4.2213060742E-02
    4.1976925711E-02    4.1742063955E-02    4.1508469130E-02    4.1276134915E-02
    4.1045055017E-02    4.0815223167E-02    4.0586633124E-02    4.0359278671E-02
    4.0133153616E-02    3.9908251794E-02    3.9684567066E-02    3.9462093316E-02
    3.9240824456E-02    3.9020754421E-02    3.8801877175E-02    3.8584186703E-02
    3.8367677019E-02    3.8152342159E-02    3.7938176186E-02    3.7725173189E-02
    3.7513327281E-02    3.7302632598E-02    3.7093083305E-02    3.6884673588E-02
    3.6677397662E-02    3.6471249763E-02    3.6266224153E-02    3.6062315120E-02
    3.5859516976E-02    3.5657824057E-02    3.5457230723E-02    3.5257731361E-02
    3.5059320380E-02    3.4861992213E-02    3.4665741321E-02    3.4470562185E-02
    3.4276449313E-02    3.4083397235E-02    3.3891400508E-02    3.3700453709E-02
    3.3510551444E-02    3.3321688338E-02    3.3133859043E-02    3.2947058234E-02
    3.2761280609E-02    3.2576520890E-02    3.2392773824E-02    3.2210034179E-02
    3.2028296749E-02    3.1847556349E-02    3.1667807820E-02    3.1489046024E-02
    3.1311265847E-02    3.1134462199E-02    3.0958630011E-02    3.0783764240E-02
    3.0609859863E-02    3.0436911882E-02    3.0264915320E-02    3.0093865225E-02
    2.9923756665E-02    2.9754584733E-02    2.9586344544E-02    2.9419031234E-02
    2.9252639964E-02    2.9087165914E-02    2.8922604289E-02    2.8758950315E-02
    2.8596199241E-02    2.8434346337E-02    2.8273386895E-02    2.8113316231E-02
    2.7954129680E-02    2.7795822601E-02    2.7638390372E-02    2.7481828396E-02
    2.7326132095E-02    2.7171296915E-02    2.7017318320E-02    2.6864191799E-02
    2.6711912859E-02    2.6560477030E-02    2.6409879864E-02    2.6260116932E-02
    2.6111183827E-02    2.5963076163E-02    2.5815789575E-02    2.5669319718E-02
    2.5523662269E-02    2.5378812924E-02    2.5234767401E-02    2.5091521437E-02
    2.4949070792E-02    2.4807411243E-02    2.4666538590E-02    2.4526448651E-02
    2.4387137266E-02    2.4248600295E-02    2.4110833616E-02    2.3973833128E-02
    2.3837594752E-02    2.3702114424E-02    2.3567388105E-02    2.3433411772E-02
    2.3300181422E-02    2.3167693073E-02    2.3035942761E-02    2.2904926543E-02
    2.2774640492E-02    2.2645080703E-02    2.2516243290E-02    2.2388124384E-02
    2.2260720138E-02    2.2134026721E-02    2.2008040322E-02    2.1882757149E-02
    2.1758173429E-02    2.1634285405E-02    2.1511089343E-02    2.1388581523E-02
    2.1266758246E-02    2.1145615831E-02    2.1025150614E-02    2.0905358951E-02
    2.0786237214E-02    2.0667781795E-02    2.0549989102E-02    2.0432855562E-02
    2.0316377620E-02    2.0200551739E-02    2.0085374398E-02    1.9970842095E-02
    1.9856951345E-02    1.9743698681E-02    1.9631080652E-02    1.9519093826E-02
    1.9407734788E-02    1.9297000137E-02    1.9186886494E-02    1.9077390494E-02
    1.8968508789E-02    1.8860238049E-02    1.8752574961E-02    1.8645516226E-02
    1.8539058565E-02    1.8433198713E-02    1.8327933424E-02    1.8223259467E-02
    1.8119173627E-02    1.8015672705E-02    1.7912753521E-02    1.7810412908E-02
    1.7708647716E-02    1.7607454811E-02    1.7506831077E-02    1.7406773411E-02
    1.7307278726E-02    1.7208343954E-02    1.7109966038E-02    1.7012141941E-02
    1.6914868639E-02    1.6818143123E-02    1.6721962402E-02    1.6626323497E-02
    1.6531223447E-02    1.6436659306E-02    1.6342628141E-02    1.6249127037E-02
    1.6156153091E-02    1.6063703417E-02    1.5971775143E-02    1.5880365413E-02
    1.5789471383E-02    1.5699090228E-02    1.5609219133E-02    1.5519855300E-02
    1.5430995946E-02    1.5342638302E-02    1.5254779611E-02    1.5167417133E-02
    1.5080548142E-02    1.4994169924E-02    1.4908279783E-02    1.4822875033E-02
    1.4737953003E-02    1.4653511038E-02    1.4569546495E-02    1.4486056745E-02
    1.4403039172E-02    1.4320491176E-02    1.4238410167E-02    1.4156793573E-02
    1.4075638831E-02    1.3994943394E-02    1.3914704728E-02    1.3834920312E-02
    1.3755587638E-02    1.3676704211E-02    1.3598267551E-02    1.3520275187E-02
    1.3442724666E-02    1.3365613543E-02    1.3288939390E-02    1.3212699789E-02
    1.3136892336E-02    1.3061514639E-02    1.2986564320E-02    1.2912039011E-02
    1.2837936359E-02    1.2764254022E-02    1.2690989671E-02    1.2618140989E-02
    1.2545705671E-02    1.2473681425E-02    1.2402065970E-02    1.2330857038E-02
    1.2260052373E-02    1.2189649731E-02    1.2119646879E-02    1.2050041597E-02
    1.1980831675E-02    1.1912014917E-02    1.1843589138E-02    1.1775552163E-02
    1.1707901831E-02    1.1640635990E-02    1.1573752502E-02    1.1507249239E-02
    1.1441124085E-02    1.1375374933E-02    1.1309999691E-02    1.1244996275E-02
    1.1180362614E-02    1.1116096647E-02    1.1052196325E-02    1.0988659609E-02
    1.0925484471E-02    1.0862668894E-02    1.0800210873E-02    1.0738108411E-02
    1.0676359526E-02    1.0614962241E-02    1.0553914595E-02    1.0493214634E-02
    1.0432860417E-02    1.0372850010E-02    1.0313181492E-02    1.0253852953E-02
    1.0194862492E-02    1.0136208217E-02    1.0077888248E-02    1.0019900715E-02
    9.9622437579E-03    9.9049155258E-03    9.8479141787E-03    9.7912378862E-03
    9.7348848278E-03    9.6788531929E-03    9.6231411806E-03    9.5677469997E-03
    9.5126688689E-03    9.4579050163E-03    9.4034536796E-03    9.3493131062E-03
    9.2954815529E-03    9.2419572859E-03    9.1887385809E-03    9.1358237228E-03
    9.0832110059E-03    9.0308987337E-03    8.9788852191E-03    8.9271687840E-03
    8.8757477592E-03    8.8246204851E-03    8.7737853106E-03    8.7232405938E-03
    8.6729847019E-03    8.6230160107E-03    8.5733329049E-03    8.5239337782E-03
    8.4748170327E-03    8.4259810796E-03    8.3774243386E-03    8.3291452378E-03
    8.2811422142E-03    8.2334137131E-03    8.1859581886E-03    8.1387741028E-03
    8.0918599265E-03    8.0452141388E-03    7.9988352271E-03    7.9527216871E-03
    7.9068720227E-03    7.8612847460E-03    7.8159583772E-03    7.7708914446E-03
    7.7260824848E-03    7.6815300420E-03    7.6372326686E-03    7.5931889252E-03
    7.5493973797E-03    7.5058566085E-03    7.4625651953E-03    7.4195217318E-03
    7.3767248175E-03    7.3341730595E-03    7.2918650725E-03    7.2497994789E-03
    7.2079749087E-03    7.1663899994E-03    7.1250433960E-03    7.0839337509E-03
    7.0430597239E-03    7.0024199824E-03    6.9620132008E-03    6.9218380612E-03
    6.8818932527E-03    6.8421774716E-03    6.8026894215E-03    6.7634278132E-03
    6.7243913645E-03    6.6855788003E-03    6.6469888526E-03    6.6086202604E-03
    6.5704717695E-03    6.5325421329E-03    6.4948301103E-03    6.4573344684E-03
    6.4200539805E-03    6.3829874268E-03    6.3461335945E-03    6.3094912771E-03
    6.2730592750E-03    6.2368363952E-03    6.2008214515E-03    6.1650132638E-03
    6.1294106590E-03    6.0940124704E-03    6.0588175376E-03    6.0238247068E-03
    5.9890328305E-03    5.9544407677E-03    5.9200473836E-03    5.8858515498E-03
    5.8518521441E-03    5.8180480505E-03    5.7844381593E-03    5.7510213670E-03
    5.7177965760E-03    5.6847626951E-03    5.6519186391E-03    5.6192633286E-03
    5.5867956904E-03    5.5545146574E-03    5.5224191682E-03    5.4905081674E-03
    5.4587806056E-03    5.4272354390E-03    5.3958716298E-03    5.3646881459E-03
    5.3336839611E-03    5.3028580548E-03    5.2722094120E-03    5.2417370235E-03
    5.2114398858E-03    5.1813170009E-03    5.1513673763E-03    5.1215900251E-03
    5.0919839661E-03    5.0625482232E-03    5.0332818262E-03    5.0041838099E-03
    4.9752532148E-03    4.9464890866E-03    4.9178904765E-03    4.8894564408E-03
    4.8611860412E-03    4.8330783446E-03    4.8051324233E-03    4.7773473545E-03
    4.7497222208E-03    4.7222561098E-03    4.6949481144E-03    4.6677973323E-03
    4.6408028664E-03    4.6139638249E-03    4.5872793204E-03    4.5607484711E-03
    4.5343703996E-03    4.5081442340E-03    4.4820691067E-03    4.4561441553E-03
    4.4303685224E-03    4.4047413549E-03    4.3792618051E-03    4.3539290295E-03
    4.3287421897E-03    4.3037004519E-03    4.2788029871E-03    4.2540489706E-03
    4.2294375828E-03    4.2049680085E-03    4.1806394370E-03    4.1564510622E-03
    4.1324020826E-03    4.1084917013E-03    4.0847191258E-03    4.0610835678E-03
    4.0375842439E-03    4.0142203747E-03    3.9909911855E-03    3.9678959059E-03
    3.9449337696E-03    3.9221040149E-03    3.8994058843E-03    3.8768386246E-03
    3.8544014867E-03    3.8320937258E-03    3.8099146015E-03    3.7878633773E-03
    3.7659393211E-03    3.7441417045E-03    3.7224698038E-03    3.7009228990E-03
    3.6795002742E-03    3.6582012177E-03    3.6370250216E-03    3.6159709822E-03
    3.5950383996E-03    3.5742265781E-03    3.5535348256E-03    3.5329624543E-03
    3.5125087799E-03    3.4921731222E-03    3.4719548048E-03    3.4518531551E-03
    3.4318675043E-03    3.4119971875E-03    3.3922415434E-03    3.3725999146E-03
    3.3530716471E-03    3.3336560911E-03    3.3143526001E-03    3.2951605313E-03
    3.2760792457E-03    3.2571081078E-03    3.2382464857E-03    3.2194937512E-03
    3.2008492796E-03    3.1823124495E-03    3.1638826434E-03    3.1455592471E-03
    3.1273416500E-03    3.1092292447E-03    3.0912214275E-03    3.0733175980E-03
    3.0555171594E-03    3.0378195180E-03    3.0202240837E-03    3.0027302695E-03
    2.9853374921E-03    2.9680451711E-03    2.9508527297E-03    2.9337595943E-03
    2.9167651944E-03    2.8998689629E-03    2.8830703360E-03    2.8663687529E-03
    2.8497636560E-03    2.8332544911E-03    2.8168407068E-03    2.8005217552E-03
    2.7842970913E-03    2.7681661732E-03    2.7521284621E-03    2.7361834224E-03
    2.7203305212E-03    2.7045692291E-03    2.6888990194E-03    2.6733193684E-03
    2.6578297555E-03    2.6424296630E-03    2.6271185761E-03    2.6118959831E-03
    2.5967613750E-03    2.5817142459E-03    2.5667540926E-03    2.5518804149E-03
    2.5370927153E-03    2.5223904993E-03    2.5077732751E-03    2.4932405537E-03
    2.4787918491E-03    2.4644266777E-03    2.4501445590E-03    2.4359450151E-03
    2.4218275707E-03    2.4077917534E-03    2.3938370934E-03    2.3799631236E-03
    2.3661693795E-03    2.3524553995E-03    2.3388207243E-03    2.3252648973E-03
    2.3117874648E-03    2.2983879753E-03    2.2850659800E-03    2.2718210328E-03
    2.2586526899E-03    2.2455605104E-03    2.2325440555E-03    2.2196028891E-03
    2.2067365778E-03    2.1939446902E-03    2.1812267978E-03    2.1685824742E-03
    2.1560112958E-03    2.1435128412E-03    2.1310866913E-03    2.1187324296E-03
    2.1064496420E-03    2.0942379165E-03    2.0820968438E-03    2.0700260167E-03
    2.0580250304E-03    2.0460934824E-03    2.0342309725E-03    2.0224371028E-03
    2.0107114778E-03    1.9990537040E-03    1.9874633903E-03    1.9759401479E-03
    1.9644835901E-03    1.9530933324E-03    1.9417689927E-03    1.9305101909E-03
    1.9193165490E-03    1.9081876915E-03    1.8971232447E-03    1.8861228372E-03
    1.8751860997E-03    1.8643126651E-03    1.8535021681E-03    1.8427542459E-03
    1.8320685376E-03    1.8214446842E-03    1.8108823290E-03    1.8003811173E-03
    1.7899406963E-03    1.7795607153E-03    1.7692408257E-03    1.7589806808E-03
    1.7487799358E-03    1.7386382480E-03    1.7285552767E-03    1.7185306831E-03
    1.7085641302E-03    1.6986552832E-03    1.6888038091E-03    1.6790093766E-03
    1.6692716567E-03    1.6595903220E-03    1.6499650471E-03    1.6403955083E-03
    1.6308813840E-03    1.6214223542E-03    1.6120181010E-03    1.6026683081E-03
    1.5933726611E-03    1.5841308475E-03    1.5749425563E-03    1.5658074786E-03
    1.5567253072E-03    1.5476957365E-03    1.5387184628E-03    1.5297931842E-03
    1.5209196003E-03    1.5120974127E-03    1.5033263244E-03    1.4946060405E-03
    1.4859362675E-03    1.4773167136E-03    1.4687470888E-03    1.4602271047E-03
    1.4517564746E-03    1.4433349133E-03    1.4349621374E-03    1.4266378652E-03
    1.4183618163E-03    1.4101337121E-03    1.4019532758E-03    1.3938202319E-03
    1.3857343065E-03    1.3776952274E-03    1.3697027240E-03    1.3617565271E-03
    1.3538563691E-03    1.3460019839E-03    1.3381931072E-03    1.3304294758E-03
    1.3227108283E-03    1.3150369047E-03    1.3074074466E-03    1.2998221968E-03
    1.2922809000E-03    1.2847833021E-03    1.2773291504E-03    1.2699181939E-03
    1.2625501829E-03    1.2552248690E-03    1.2479420055E-03    1.2407013469E-03
    1.2335026494E-03    1.2263456702E-03    1.2192301681E-03    1.2121559035E-03
    1.2051226378E-03    1.1981301340E-03    1.1911781564E-03    1.1842664706E-03
    1.1773948438E-03    1.1705630441E-03    1.1637708414E-03    1.1570180066E-03
    1.1503043121E-03    1.1436295315E-03    1.1369934397E-03    1.1303958130E-03
    1.1238364290E-03    1.1173150664E-03    1.1108315053E-03    1.1043855271E-03
    1.0979769144E-03    1.0916054511E-03
   </PP_CHI.4>
 </PP_PSWFC>
 <PP_NLCC type="real"  size="1554" columns="4">
    3.9899454433E+00    3.9882684782E+00    3.9832407333E+00    3.9748716552E+00
    3.9631769703E+00    3.9481786587E+00    3.9299049170E+00    3.9083901107E+00
    3.8836747162E+00    3.8558052517E+00    3.8248341982E+00    3.7908199095E+00
    3.7538265116E+00    3.7139237915E+00    3.6711870762E+00    3.6256970996E+00
    3.5775398603E+00    3.5268064679E+00    3.4735929793E+00    3.4180002240E+00
    3.3601336188E+00    3.3001029727E+00    3.2380222799E+00    3.1740095033E+00
    3.1081863473E+00    3.0406780192E+00    2.9716129813E+00    2.9011226911E+00
    2.8293413320E+00    2.7564055328E+00    2.6824540767E+00    2.6076276001E+00
    2.5320682802E+00    2.4559195129E+00    2.3793255789E+00    2.3024313002E+00
    2.2253816862E+00    2.1483215678E+00    2.0713952229E+00    1.9947459893E+00
    1.9185158690E+00    1.8428451200E+00    1.7678718394E+00    1.6937315340E+00
    1.6205566822E+00    1.5484762839E+00    1.4776154003E+00    1.4080946837E+00
    1.3400298955E+00    1.2735314149E+00    1.2087037361E+00    1.1456449553E+00
    1.0844462473E+00    1.0251913309E+00    9.6795592454E-01    9.1280719066E-01
    8.5980316991E-01    8.0899220456E-01    7.6041235149E-01    7.1409078445E-01
    6.7004318582E-01    6.2827312786E-01    5.8877144320E-01    5.5151558495E-01
    5.1646897609E-01    4.8358034833E-01    4.5278307046E-01    4.2399446595E-01
    3.9711512018E-01    3.7202817693E-01    3.4859862436E-01    3.2667257488E-01
    3.0608131589E-01    2.8666909227E-01    2.6830750028E-01    2.5089175255E-01
    2.3433674084E-01    2.1857369668E-01    2.0354735927E-01    1.8921357230E-01
    1.7553724057E-01    1.6249058630E-01    1.5005165301E-01    1.3820301404E-01
    1.2693065267E-01    1.1622299044E-01    1.0607004952E-01    9.6462741393E-02
    8.7392277725E-02    7.8849699622E-02    7.0825519623E-02    6.3309467699E-02
    5.6290329616E-02    4.9755863916E-02    4.3692783013E-02    3.8086784204E-02
    3.2922617654E-02    2.8184180141E-02    2.3854625198E-02    1.9916482138E-02
    1.6351778042E-02    1.3142158197E-02    1.0269001653E-02    7.7135296441E-03
    5.4569055133E-03    3.4803256598E-03    1.7651017013E-03    2.9273461815E-04
   -9.5501801336E-04   -1.9960804469E-03   -2.8480016511E-03   -3.5279016475E-03
   -4.0524205674E-03   -4.4376699830E-03   -4.6991863081E-03   -4.8518862370E-03
   -4.9100242778E-03   -4.8871524472E-03   -4.7960821552E-03   -4.6488482385E-03
   -4.4566750157E-03   -4.2299441617E-03   -3.9781641300E-03   -3.7099408028E-03
   -3.4329490093E-03   -3.1539045328E-03   -2.8785362161E-03   -2.6115577690E-03
   -2.3566388884E-03   -2.1163753089E-03   -1.8922574482E-03   -1.6846747706E-03
   -1.4933462751E-03   -1.3178148086E-03   -1.1575128390E-03   -1.0117786887E-03
   -8.7987277116E-04   -7.6100866893E-04   -6.5438908360E-04   -5.5921635122E-04
   -4.7469797548E-04   -4.0005161264E-04   -3.3450954050E-04   -2.7732264166E-04
   -2.2776392944E-04   -1.8513164301E-04   -1.4875193643E-04   -1.1798118448E-04
   -9.2207926812E-05   -7.0854470093E-05   -5.3378166695E-05   -3.9272387122E-05
   -2.8067202257E-05   -1.9329790569E-05   -1.2664584593E-05   -7.7131703228E-06
   -4.1539526157E-06   -1.7015993204E-06   -1.0627655826E-07    8.4731254077E-07
    1.3410733787E-06    1.5248373401E-06    1.5178385662E-06    1.4103372024E-06
    1.2653756834E-06    1.1206584861E-06    9.9079266996E-07    8.7597480712E-07
    7.7446200869E-07    6.8471105383E-07    6.0535881503E-07    5.3520046451E-07
    4.7317099488E-07    4.1832891316E-07    3.6984185133E-07    3.2697386689E-07
    2.8907423359E-07    2.5556754594E-07    2.2594498234E-07    1.9975658950E-07
    1.7660446748E-07    1.5613674873E-07    1.3804227756E-07    1.2204590711E-07
    1.0790434128E-07    9.5402457705E-08    8.4350055113E-08    7.4578975907E-08
    6.5940559985E-08    5.8303391535E-08    5.1551304937E-08    4.5581619895E-08
    4.0303579475E-08    3.5636967882E-08    3.1510887181E-08    2.7862675160E-08
    2.4636947979E-08    2.1784753476E-08    1.9262822557E-08    1.7032907376E-08
    1.5061196551E-08    1.3317798409E-08    1.1776284715E-08    1.0413287115E-08
    9.2081393862E-09    8.1425640904E-09    7.2003973170E-09    6.3673450427E-09
    5.6307674006E-09    4.9794876942E-09    4.4036234303E-09    3.8944366839E-09
    3.4442017415E-09    3.0460880523E-09    2.6940565619E-09    2.3827681146E-09
    2.1075023782E-09    1.8640861642E-09    1.6488300226E-09    1.4584721873E-09
    1.2901289889E-09    1.1412510297E-09    1.0095844246E-09    8.9313653144E-10
    7.9014565892E-10    6.9905428425E-10    6.1848537253E-10    5.4722144759E-10
    4.8418608676E-10    4.2842756397E-10    3.7910438950E-10    3.3547252775E-10
    2.9687409788E-10    2.6272738549E-10    2.3251801316E-10    2.0579113540E-10
    1.8214453911E-10    1.6122254457E-10    1.4271061362E-10    1.2633058411E-10
    1.1183645432E-10    9.9010648422E-11    8.7660723467E-11    7.7616464972E-11
    6.8727318557E-11    6.0860117919E-11    5.3897075039E-11    4.7734002430E-11
    4.2278740733E-11    3.7449768025E-11    3.3174969941E-11    2.9390552083E-11
    2.6040078311E-11    2.3073620384E-11    2.0447006088E-11    1.8121154442E-11
    1.6061487893E-11    1.4237412567E-11    1.2621858686E-11    1.1190874132E-11
    9.9232650165E-12    8.8002777672E-12    7.8053179187E-12    6.9237013487E-12
    6.1424341936E-12    5.4500181230E-12    4.8362780398E-12    4.2922096164E-12
    3.8098443791E-12    3.3821303190E-12    3.0028262447E-12    2.6664082971E-12
    2.3679872300E-12    2.1032352206E-12    1.8683211170E-12    1.6598531542E-12
    1.4748282807E-12    1.3105873369E-12    1.1647754123E-12    1.0353067845E-12
    9.2033391397E-13    8.1822002417E-13    7.2751485504E-13    6.4693322170E-13
    5.7533605399E-13    5.1171362933E-13    4.5517074455E-13    4.0491360167E-13
    3.6023820861E-13    3.2052011884E-13    2.8520535452E-13    2.5380237558E-13
    2.2587497327E-13    2.0103598092E-13    1.7894170699E-13    1.5928700666E-13
    1.4180091812E-13    1.2624279800E-13    1.1239889836E-13    1.0007933413E-13
    8.9115396126E-14    7.9357169621E-14    7.0671423499E-14    6.2939738793E-14
    5.6056849205E-14    4.9929169316E-14    4.4473489002E-14    3.9615815117E-14
    3.5290343612E-14    3.1438547276E-14    2.8008365943E-14    2.4953487537E-14
    2.2232709675E-14    1.9809372699E-14    1.7650856080E-14    1.5728131046E-14
    1.4015363089E-14    1.2489558757E-14    1.1130251745E-14    9.9192238820E-15
    8.8402571025E-15    7.8789129365E-15    7.0223364422E-15    6.2590818542E-15
    5.5789575234E-15    4.9728880022E-15    4.4327913670E-15    3.9514700834E-15
    3.5225139115E-15    3.1402135150E-15    2.7994835878E-15    2.4957944449E-15
    2.2251111395E-15    1.9838392765E-15    1.7687767799E-15    1.5770709598E-15
    1.4061802917E-15    1.2538403908E-15    1.1180337173E-15    9.9696260406E-16
    8.8902523874E-16    7.9279427736E-16    7.0699779919E-16    6.3050234600E-16
    5.6229781684E-16    5.0148401475E-16    4.4725866413E-16    3.9890673765E-16
    3.5579094909E-16    3.1734328451E-16    2.8305745790E-16    2.5248219033E-16
    2.2521522229E-16    2.0089797920E-16    1.7921081861E-16    1.5986879546E-16
    1.4261788893E-16    1.2723164035E-16    1.1350815730E-16    1.0126744407E-16
    9.0349022590E-17    8.0609812462E-17    7.1922241584E-17    6.4172562358E-17
    5.7259351036E-17    5.1092170245E-17    4.5590376916E-17    4.0682059788E-17
    3.6303092361E-17    3.2396288753E-17    2.8910651233E-17    2.5800699485E-17
    2.3025872683E-17    2.0549996483E-17    1.8340807853E-17    1.6369531463E-17
    1.4610502036E-17    1.3040827647E-17    1.1640089549E-17    1.0390074529E-17
    9.2745362818E-18    8.2789826462E-18    7.3904858897E-18    6.5975135469E-18
    5.8897775802E-18    5.2580998731E-18    4.6942922868E-18    4.1910496992E-18
    3.7418546196E-18    3.3408921242E-18    2.9829739944E-18    2.6634710583E-18
    2.3782528502E-18    2.1236337932E-18    1.8963251991E-18    1.6933924557E-18
    1.5122168402E-18    1.3504614583E-18    1.2060408605E-18    1.0770939414E-18
    9.6195976362E-19    8.5915599203E-19    7.6735965493E-19    6.8538998155E-19
    6.1219309057E-19    5.4682833032E-19    4.8845609200E-19    4.3632693667E-19
    3.8977189447E-19    3.4819380913E-19    3.1105961504E-19    2.7789344641E-19
    2.4827048855E-19    2.2181149127E-19    1.9817787304E-19    1.7706735194E-19
    1.5821004696E-19    1.4136499868E-19    1.2631706431E-19    1.1287414663E-19
    1.0086472086E-19    9.0135627436E-20    8.0550102001E-20    7.1986017118E-20
    6.4334312928E-20    5.7497596268E-20    5.1388890316E-20    4.5930518456E-20
    4.1053107978E-20    3.6694700700E-20    3.2799958983E-20    2.9319456968E-20
    2.6209047804E-20    2.3429298764E-20    2.0944986879E-20    1.8724648648E-20
    1.6740178011E-20    1.4966467392E-20    1.3381087187E-20    1.1963999576E-20
    1.0697302975E-20    9.5650038516E-21    8.5528129589E-21    7.6479633634E-21
    6.8390479453E-21    6.1158742788E-21    5.4693350337E-21    4.8912922187E-21
    4.3744738061E-21    3.9123814008E-21    3.4992077763E-21    3.1297632093E-21
    2.7994096877E-21    2.5040021409E-21    2.2398359442E-21    2.0036000198E-21
    1.7923349455E-21    1.6033955315E-21    1.4344173870E-21    1.2832870492E-21
    1.1481152982E-21    1.0272133171E-21    9.1907138797E-22    8.2233985931E-22
    7.3581213966E-22    6.5840950303E-22    5.8916750895E-22    5.2722386927E-22
    4.7180760631E-22    4.2222936283E-22    3.7787274260E-22    3.3818657210E-22
    3.0267798492E-22    2.7090623977E-22    2.4247719605E-22    2.1703837657E-22
    1.9427455363E-22    1.7390380391E-22    1.5567398244E-22    1.3935957047E-22
    1.2475885747E-22    1.1169142216E-22    9.9995881040E-23    8.9527874797E-23
    8.0158268531E-23    7.1771542865E-23    6.4264355022E-23    5.7544252460E-23
    5.1528522860E-23    4.6143165625E-23    4.1321972201E-23    3.7005703853E-23
    3.3141356322E-23    2.9681502132E-23    2.6583702575E-23    2.3809981810E-23
    2.1326356413E-23    1.9102414735E-23    1.7110940690E-23    1.5327577147E-23
    1.3730524945E-23    1.2300273686E-23    1.1019360824E-23    9.8721562466E-24
    8.8446695770E-24    7.9243777131E-24    7.1000706053E-24    6.3617132852E-24
    5.7003223728E-24    5.1078556369E-24    4.5771131780E-24    4.1016489763E-24
    3.6756917848E-24    3.2940743332E-24    2.9521699573E-24    2.6458359205E-24
    2.3713626768E-24    2.1254284585E-24    1.9050586560E-24    1.7075894448E-24
    1.5306352344E-24    1.3720595485E-24    1.2299489414E-24    1.1025896600E-24
    9.8844676177E-25    8.8614540447E-25    7.9445411119E-25    7.1226978681E-25
    6.3860429746E-25    5.7257246477E-25    5.1338131205E-25    4.6032043511E-25
    4.1275338725E-25    3.7010995818E-25    3.3187926442E-25    2.9760356391E-25
    2.6687271214E-25    2.3931920260E-25    2.1461372331E-25    1.9246117642E-25
    1.7259711674E-25    1.5478455860E-25    1.3881111778E-25    1.2448645230E-25
    1.1163996790E-25    1.0011876527E-25    8.9785799755E-26    8.0518232978E-26
    7.2205957491E-26    6.4750273175E-26    5.8062703081E-26    5.2063931918E-26
    4.6682854678E-26    4.1855725292E-26    3.7525392633E-26    3.3640616823E-26
    3.0155456408E-26    2.7028718877E-26    2.4223468972E-26    2.1706587340E-26
    1.9448375510E-26    1.7424294959E-26    1.5622799974E-26    1.3868182451E-26
    1.2395842383E-26    1.1941975464E-26    1.0020612556E-26    3.8998946437E-27
   -6.5479122975E-28   -5.3437830917E-28    2.1946740763E-28    5.1479970676E-29
   -1.3742307866E-29    1.0117388392E-29    8.9911651177E-30    7.9905550085E-30
    7.1015174091E-30    6.3115845155E-30    5.6096848526E-30    4.9859863922E-30
    4.4317577124E-30    3.9392443169E-30    3.5015592345E-30    3.1125856871E-30
    2.7668907685E-30    2.4596488718E-30    2.1865735661E-30    1.9438573281E-30
    1.7281178232E-30    1.5363503858E-30    1.3658857257E-30    1.2143524154E-30
    1.0796436007E-30    9.5988737929E-31    8.5342059289E-31    7.5876544992E-31
    6.7460885815E-31    5.9978400589E-31    5.3325404158E-31    4.7409756778E-31
    4.2149574844E-31    3.7472088399E-31    3.3312622638E-31    2.9613697505E-31
    2.6324223814E-31    2.3398792481E-31    2.0797040876E-31    1.8483091177E-31
    1.6425051010E-31    1.4594569510E-31    1.2966443776E-31    1.1518267913E-31
    1.0232590525E-31    9.0940306982E-32    8.0218243266E-32    7.0784864245E-32
    6.6243548060E-32    5.9657006923E-32    3.5528386614E-32    5.1043302876E-33
   -5.2636616986E-33   -5.3241454419E-34    1.1557887521E-33   -1.6256790856E-35
   -1.3126693541E-34    0.0000000000E+00    0.0000000000E+00    0.0000000000E+00
    0.0000000000E+00    0.0000000000E+00    0.0000000000E+00    0.0000000000E+00
    0.0000000000E+00    0.0000000000E+00    0.0000000000E+00    0.0000000000E+00
    0.0000000000E+00    0.0000000000E+00    0.0000000000E+00    0.0000000000E+00
    0.0000000000E+00    0.0000000000E+00    0.0000000000E+00    0.0000000000E+00
    0.0000000000E+00    0.0000000000E+00    0.0000000000E+00    0.0000000000E+00
    0.0000000000E+00    0.0000000000E+00    0.0000000000E+00    0.0000000000E+00
    0.0000000000E+00    0.0000000000E+00    0.0000000000E+00    0.0000000000E+00
    0.0000000000E+00    0.0000000000E+00    0.0000000000E+00    0.0000000000E+00
    0.0000000000E+00    0.0000000000E+00    0.0000000000E+00    0.0000000000E+00
    0.0000000000E+00    0.0000000000E+00    0.0000000000E+00    0.0000000000E+00
    0.0000000000E+00    0.0000000000E+00    0.0000000000E+00    0.0000000000E+00
    0.0000000000E+00    0.0000000000E+00    0.0000000000E+00    0.0000000000E+00
    0.0000000000E+00    0.0000000000E+00    0.0000000000E+00    0.0000000000E+00
    0.0000000000E+00    0.0000000000E+00    0.0000000000E+00    0.0000000000E+00
    0.0000000000E+00    0.0000000000E+00    0.0000000000E+00    0.0000000000E+00
    0.0000000000E+00    0.0000000000E+00    0.0000000000E+00    0.0000000000E+00
    0.0000000000E+00    0.0000000000E+00    0.0000000000E+00    0.0000000000E+00
    0.0000000000E+00    0.0000000000E+00    0.0000000000E+00    0.0000000000E+00
    0.0000000000E+00    0.0000000000E+00    0.0000000000E+00    0.0000000000E+00
    0.0000000000E+00    0.0000000000E+00    0.0000000000E+00    0.0000000000E+00
    0.0000000000E+00    0.0000000000E+00    0.0000000000E+00    0.0000000000E+00
    0.0000000000E+00    0.0000000000E+00    0.0000000000E+00    0.0000000000E+00
    0.0000000000E+00    0.0000000000E+00    0.0000000000E+00    0.0000000000E+00
    0.0000000000E+00    0.0000000000E+00    0.0000000000E+00    0.0000000000E+00
    0.0000000000E+00    0.0000000000E+00    0.0000000000E+00    0.0000000000E+00
    0.0000000000E+00    0.0000000000E+00    0.0000000000E+00    0.0000000000E+00
    0.0000000000E+00    0.0000000000E+00    0.0000000000E+00    0.0000000000E+00
    0.0000000000E+00    0.0000000000E+00    0.0000000000E+00    0.0000000000E+00
    0.0000000000E+00    0.0000000000E+00    0.0000000000E+00    0.0000000000E+00
    0.0000000000E+00    0.0000000000E+00    0.0000000000E+00    0.0000000000E+00
    0.0000000000E+00    0.0000000000E+00    0.0000000000E+00    0.0000000000E+00
    0.0000000000E+00    0.0000000000E+00    0.0000000000E+00    0.0000000000E+00
    0.0000000000E+00    0.0000000000E+00    0.0000000000E+00    0.0000000000E+00
    0.0000000000E+00    0.0000000000E+00    0.0000000000E+00    0.0000000000E+00
    0.0000000000E+00    0.0000000000E+00    0.0000000000E+00    0.0000000000E+00
    0.0000000000E+00    0.0000000000E+00    0.0000000000E+00    0.0000000000E+00
    0.0000000000E+00    0.0000000000E+00    0.0000000000E+00    0.0000000000E+00
    0.0000000000E+00    0.0000000000E+00    0.0000000000E+00    0.0000000000E+00
    0.0000000000E+00    0.0000000000E+00    0.0000000000E+00    0.0000000000E+00
    0.0000000000E+00    0.0000000000E+00    0.0000000000E+00    0.0000000000E+00
    0.0000000000E+00    0.0000000000E+00    0.0000000000E+00    0.0000000000E+00
    0.0000000000E+00    0.0000000000E+00    0.0000000000E+00    0.0000000000E+00
    0.0000000000E+00    0.0000000000E+00    0.0000000000E+00    0.0000000000E+00
    0.0000000000E+00    0.0000000000E+00    0.0000000000E+00    0.0000000000E+00
    0.0000000000E+00    0.0000000000E+00    0.0000000000E+00    0.0000000000E+00
    0.0000000000E+00    0.0000000000E+00    0.0000000000E+00    0.0000000000E+00
    0.0000000000E+00    0.0000000000E+00    0.0000000000E+00    0.0000000000E+00
    0.0000000000E+00    0.0000000000E+00    0.0000000000E+00    0.0000000000E+00
    0.0000000000E+00    0.0000000000E+00    0.0000000000E+00    0.0000000000E+00
    0.0000000000E+00    0.0000000000E+00    0.0000000000E+00    0.0000000000E+00
    0.0000000000E+00    0.0000000000E+00    0.0000000000E+00    0.0000000000E+00
    0.0000000000E+00    0.0000000000E+00    0.0000000000E+00    0.0000000000E+00
    0.0000000000E+00    0.0000000000E+00    0.0000000000E+00    0.0000000000E+00
    0.0000000000E+00    0.0000000000E+00    0.0000000000E+00    0.0000000000E+00
    0.0000000000E+00    0.0000000000E+00    0.0000000000E+00    0.0000000000E+00
    0.0000000000E+00    0.0000000000E+00    0.0000000000E+00    0.0000000000E+00
    0.0000000000E+00    0.0000000000E+00    0.0000000000E+00    0.0000000000E+00
    0.0000000000E+00    0.0000000000E+00    0.0000000000E+00    0.0000000000E+00
    0.0000000000E+00    0.0000000000E+00    0.0000000000E+00    0.0000000000E+00
    0.0000000000E+00    0.0000000000E+00    0.0000000000E+00    0.0000000000E+00
    0.0000000000E+00    0.0000000000E+00    0.0000000000E+00    0.0000000000E+00
    0.0000000000E+00    0.0000000000E+00    0.0000000000E+00    0.0000000000E+00
    0.0000000000E+00    0.0000000000E+00    0.0000000000E+00    0.0000000000E+00
    0.0000000000E+00    0.0000000000E+00    0.0000000000E+00    0.0000000000E+00
    0.0000000000E+00    0.0000000000E+00    0.0000000000E+00    0.0000000000E+00
    0.0000000000E+00    0.0000000000E+00    0.0000000000E+00    0.0000000000E+00
    0.0000000000E+00    0.0000000000E+00    0.0000000000E+00    0.0000000000E+00
    0.0000000000E+00    0.0000000000E+00    0.0000000000E+00    0.0000000000E+00
    0.0000000000E+00    0.0000000000E+00    0.0000000000E+00    0.0000000000E+00
    0.0000000000E+00    0.0000000000E+00    0.0000000000E+00    0.0000000000E+00
    0.0000000000E+00    0.0000000000E+00    0.0000000000E+00    0.0000000000E+00
    0.0000000000E+00    0.0000000000E+00    0.0000000000E+00    0.0000000000E+00
    0.0000000000E+00    0.0000000000E+00    0.0000000000E+00    0.0000000000E+00
    0.0000000000E+00    0.0000000000E+00    0.0000000000E+00    0.0000000000E+00
    0.0000000000E+00    0.0000000000E+00    0.0000000000E+00    0.0000000000E+00
    0.0000000000E+00    0.0000000000E+00    0.0000000000E+00    0.0000000000E+00
    0.0000000000E+00    0.0000000000E+00    0.0000000000E+00    0.0000000000E+00
    0.0000000000E+00    0.0000000000E+00    0.0000000000E+00    0.0000000000E+00
    0.0000000000E+00    0.0000000000E+00    0.0000000000E+00    0.0000000000E+00
    0.0000000000E+00    0.0000000000E+00    0.0000000000E+00    0.0000000000E+00
    0.0000000000E+00    0.0000000000E+00    0.0000000000E+00    0.0000000000E+00
    0.0000000000E+00    0.0000000000E+00    0.0000000000E+00    0.0000000000E+00
    0.0000000000E+00    0.0000000000E+00    0.0000000000E+00    0.0000000000E+00
    0.0000000000E+00    0.0000000000E+00    0.0000000000E+00    0.0000000000E+00
    0.0000000000E+00    0.0000000000E+00    0.0000000000E+00    0.0000000000E+00
    0.0000000000E+00    0.0000000000E+00    0.0000000000E+00    0.0000000000E+00
    0.0000000000E+00    0.0000000000E+00    0.0000000000E+00    0.0000000000E+00
    0.0000000000E+00    0.0000000000E+00    0.0000000000E+00    0.0000000000E+00
    0.0000000000E+00    0.0000000000E+00    0.0000000000E+00    0.0000000000E+00
    0.0000000000E+00    0.0000000000E+00    0.0000000000E+00    0.0000000000E+00
    0.0000000000E+00    0.0000000000E+00    0.0000000000E+00    0.0000000000E+00
    0.0000000000E+00    0.0000000000E+00    0.0000000000E+00    0.0000000000E+00
    0.0000000000E+00    0.0000000000E+00    0.0000000000E+00    0.0000000000E+00
    0.0000000000E+00    0.0000000000E+00    0.0000000000E+00    0.0000000000E+00
    0.0000000000E+00    0.0000000000E+00    0.0000000000E+00    0.0000000000E+00
    0.0000000000E+00    0.0000000000E+00    0.0000000000E+00    0.0000000000E+00
    0.0000000000E+00    0.0000000000E+00    0.0000000000E+00    0.0000000000E+00
    0.0000000000E+00    0.0000000000E+00    0.0000000000E+00    0.0000000000E+00
    0.0000000000E+00    0.0000000000E+00    0.0000000000E+00    0.0000000000E+00
    0.0000000000E+00    0.0000000000E+00    0.0000000000E+00    0.0000000000E+00
    0.0000000000E+00    0.0000000000E+00    0.0000000000E+00    0.0000000000E+00
    0.0000000000E+00    0.0000000000E+00    0.0000000000E+00    0.0000000000E+00
    0.0000000000E+00    0.0000000000E+00    0.0000000000E+00    0.0000000000E+00
    0.0000000000E+00    0.0000000000E+00    0.0000000000E+00    0.0000000000E+00
    0.0000000000E+00    0.0000000000E+00    0.0000000000E+00    0.0000000000E+00
    0.0000000000E+00    0.0000000000E+00    0.0000000000E+00    0.0000000000E+00
    0.0000000000E+00    0.0000000000E+00    0.0000000000E+00    0.0000000000E+00
    0.0000000000E+00    0.0000000000E+00    0.0000000000E+00    0.0000000000E+00
    0.0000000000E+00    0.0000000000E+00    0.0000000000E+00    0.0000000000E+00
    0.0000000000E+00    0.0000000000E+00    0.0000000000E+00    0.0000000000E+00
    0.0000000000E+00    0.0000000000E+00    0.0000000000E+00    0.0000000000E+00
    0.0000000000E+00    0.0000000000E+00    0.0000000000E+00    0.0000000000E+00
    0.0000000000E+00    0.0000000000E+00    0.0000000000E+00    0.0000000000E+00
    0.0000000000E+00    0.0000000000E+00    0.0000000000E+00    0.0000000000E+00
    0.0000000000E+00    0.0000000000E+00    0.0000000000E+00    0.0000000000E+00
    0.0000000000E+00    0.0000000000E+00    0.0000000000E+00    0.0000000000E+00
    0.0000000000E+00    0.0000000000E+00    0.0000000000E+00    0.0000000000E+00
    0.0000000000E+00    0.0000000000E+00    0.0000000000E+00    0.0000000000E+00
    0.0000000000E+00    0.0000000000E+00    0.0000000000E+00    0.0000000000E+00
    0.0000000000E+00    0.0000000000E+00    0.0000000000E+00    0.0000000000E+00
    0.0000000000E+00    0.0000000000E+00    0.0000000000E+00    0.0000000000E+00
    0.0000000000E+00    0.0000000000E+00    0.0000000000E+00    0.0000000000E+00
    0.0000000000E+00    0.0000000000E+00    0.0000000000E+00    0.0000000000E+00
    0.0000000000E+00    0.0000000000E+00    0.0000000000E+00    0.0000000000E+00
    0.0000000000E+00    0.0000000000E+00    0.0000000000E+00    0.0000000000E+00
    0.0000000000E+00    0.0000000000E+00    0.0000000000E+00    0.0000000000E+00
    0.0000000000E+00    0.0000000000E+00    0.0000000000E+00    0.0000000000E+00
    0.0000000000E+00    0.0000000000E+00    0.0000000000E+00    0.0000000000E+00
    0.0000000000E+00    0.0000000000E+00    0.0000000000E+00    0.0000000000E+00
    0.0000000000E+00    0.0000000000E+00    0.0000000000E+00    0.0000000000E+00
    0.0000000000E+00    0.0000000000E+00    0.0000000000E+00    0.0000000000E+00
    0.0000000000E+00    0.0000000000E+00    0.0000000000E+00    0.0000000000E+00
    0.0000000000E+00    0.0000000000E+00    0.0000000000E+00    0.0000000000E+00
    0.0000000000E+00    0.0000000000E+00    0.0000000000E+00    0.0000000000E+00
    0.0000000000E+00    0.0000000000E+00    0.0000000000E+00    0.0000000000E+00
    0.0000000000E+00    0.0000000000E+00    0.0000000000E+00    0.0000000000E+00
    0.0000000000E+00    0.0000000000E+00    0.0000000000E+00    0.0000000000E+00
    0.0000000000E+00    0.0000000000E+00    0.0000000000E+00    0.0000000000E+00
    0.0000000000E+00    0.0000000000E+00    0.0000000000E+00    0.0000000000E+00
    0.0000000000E+00    0.0000000000E+00    0.0000000000E+00    0.0000000000E+00
    0.0000000000E+00    0.0000000000E+00    0.0000000000E+00    0.0000000000E+00
    0.0000000000E+00    0.0000000000E+00    0.0000000000E+00    0.0000000000E+00
    0.0000000000E+00    0.0000000000E+00    0.0000000000E+00    0.0000000000E+00
    0.0000000000E+00    0.0000000000E+00    0.0000000000E+00    0.0000000000E+00
    0.0000000000E+00    0.0000000000E+00    0.0000000000E+00    0.0000000000E+00
    0.0000000000E+00    0.0000000000E+00    0.0000000000E+00    0.0000000000E+00
    0.0000000000E+00    0.0000000000E+00    0.0000000000E+00    0.0000000000E+00
    0.0000000000E+00    0.0000000000E+00    0.0000000000E+00    0.0000000000E+00
    0.0000000000E+00    0.0000000000E+00    0.0000000000E+00    0.0000000000E+00
    0.0000000000E+00    0.0000000000E+00    0.0000000000E+00    0.0000000000E+00
    0.0000000000E+00    0.0000000000E+00    0.0000000000E+00    0.0000000000E+00
    0.0000000000E+00    0.0000000000E+00    0.0000000000E+00    0.0000000000E+00
    0.0000000000E+00    0.0000000000E+00    0.0000000000E+00    0.0000000000E+00
    0.0000000000E+00    0.0000000000E+00    0.0000000000E+00    0.0000000000E+00
    0.0000000000E+00    0.0000000000E+00    0.0000000000E+00    0.0000000000E+00
    0.0000000000E+00    0.0000000000E+00    0.0000000000E+00    0.0000000000E+00
    0.0000000000E+00    0.0000000000E+00    0.0000000000E+00    0.0000000000E+00
    0.0000000000E+00    0.0000000000E+00    0.0000000000E+00    0.0000000000E+00
    0.0000000000E+00    0.0000000000E+00    0.0000000000E+00    0.0000000000E+00
    0.0000000000E+00    0.0000000000E+00    0.0000000000E+00    0.0000000000E+00
    0.0000000000E+00    0.0000000000E+00    0.0000000000E+00    0.0000000000E+00
    0.0000000000E+00    0.0000000000E+00    0.0000000000E+00    0.0000000000E+00
    0.0000000000E+00    0.0000000000E+00    0.0000000000E+00    0.0000000000E+00
    0.0000000000E+00    0.0000000000E+00    0.0000000000E+00    0.0000000000E+00
    0.0000000000E+00    0.0000000000E+00    0.0000000000E+00    0.0000000000E+00
    0.0000000000E+00    0.0000000000E+00    0.0000000000E+00    0.0000000000E+00
    0.0000000000E+00    0.0000000000E+00    0.0000000000E+00    0.0000000000E+00
    0.0000000000E+00    0.0000000000E+00    0.0000000000E+00    0.0000000000E+00
    0.0000000000E+00    0.0000000000E+00    0.0000000000E+00    0.0000000000E+00
    0.0000000000E+00    0.0000000000E+00    0.0000000000E+00    0.0000000000E+00
    0.0000000000E+00    0.0000000000E+00    0.0000000000E+00    0.0000000000E+00
    0.0000000000E+00    0.0000000000E+00    0.0000000000E+00    0.0000000000E+00
    0.0000000000E+00    0.0000000000E+00    0.0000000000E+00    0.0000000000E+00
    0.0000000000E+00    0.0000000000E+00    0.0000000000E+00    0.0000000000E+00
    0.0000000000E+00    0.0000000000E+00    0.0000000000E+00    0.0000000000E+00
    0.0000000000E+00    0.0000000000E+00    0.0000000000E+00    0.0000000000E+00
    0.0000000000E+00    0.0000000000E+00    0.0000000000E+00    0.0000000000E+00
    0.0000000000E+00    0.0000000000E+00    0.0000000000E+00    0.0000000000E+00
    0.0000000000E+00    0.0000000000E+00    0.0000000000E+00    0.0000000000E+00
    0.0000000000E+00    0.0000000000E+00    0.0000000000E+00    0.0000000000E+00
    0.0000000000E+00    0.0000000000E+00    0.0000000000E+00    0.0000000000E+00
    0.0000000000E+00    0.0000000000E+00    0.0000000000E+00    0.0000000000E+00
    0.0000000000E+00    0.0000000000E+00    0.0000000000E+00    0.0000000000E+00
    0.0000000000E+00    0.0000000000E+00    0.0000000000E+00    0.0000000000E+00
    0.0000000000E+00    0.0000000000E+00    0.0000000000E+00    0.0000000000E+00
    0.0000000000E+00    0.0000000000E+00    0.0000000000E+00    0.0000000000E+00
    0.0000000000E+00    0.0000000000E+00    0.0000000000E+00    0.0000000000E+00
    0.0000000000E+00    0.0000000000E+00    0.0000000000E+00    0.0000000000E+00
    0.0000000000E+00    0.0000000000E+00    0.0000000000E+00    0.0000000000E+00
    0.0000000000E+00    0.0000000000E+00    0.0000000000E+00    0.0000000000E+00
    0.0000000000E+00    0.0000000000E+00    0.0000000000E+00    0.0000000000E+00
    0.0000000000E+00    0.0000000000E+00    0.0000000000E+00    0.0000000000E+00
    0.0000000000E+00    0.0000000000E+00    0.0000000000E+00    0.0000000000E+00
    0.0000000000E+00    0.0000000000E+00    0.0000000000E+00    0.0000000000E+00
    0.0000000000E+00    0.0000000000E+00    0.0000000000E+00    0.0000000000E+00
    0.0000000000E+00    0.0000000000E+00    0.0000000000E+00    0.0000000000E+00
    0.0000000000E+00    0.0000000000E+00    0.0000000000E+00    0.0000000000E+00
    0.0000000000E+00    0.0000000000E+00    0.0000000000E+00    0.0000000000E+00
    0.0000000000E+00    0.0000000000E+00    0.0000000000E+00    0.0000000000E+00
    0.0000000000E+00    0.0000000000E+00    0.0000000000E+00    0.0000000000E+00
    0.0000000000E+00    0.0000000000E+00    0.0000000000E+00    0.0000000000E+00
    0.0000000000E+00    0.0000000000E+00    0.0000000000E+00    0.0000000000E+00
    0.0000000000E+00    0.0000000000E+00    0.0000000000E+00    0.0000000000E+00
    0.0000000000E+00    0.0000000000E+00    0.0000000000E+00    0.0000000000E+00
    0.0000000000E+00    0.0000000000E+00    0.0000000000E+00    0.0000000000E+00
    0.0000000000E+00    0.0000000000E+00    0.0000000000E+00    0.0000000000E+00
    0.0000000000E+00    0.0000000000E+00    0.0000000000E+00    0.0000000000E+00
    0.0000000000E+00    0.0000000000E+00    0.0000000000E+00    0.0000000000E+00
    0.0000000000E+00    0.0000000000E+00    0.0000000000E+00    0.0000000000E+00
    0.0000000000E+00    0.0000000000E+00    0.0000000000E+00    0.0000000000E+00
    0.0000000000E+00    0.0000000000E+00    0.0000000000E+00    0.0000000000E+00
    0.0000000000E+00    0.0000000000E+00    0.0000000000E+00    0.0000000000E+00
    0.0000000000E+00    0.0000000000E+00    0.0000000000E+00    0.0000000000E+00
    0.0000000000E+00    0.0000000000E+00    0.0000000000E+00    0.0000000000E+00
    0.0000000000E+00    0.0000000000E+00    0.0000000000E+00    0.0000000000E+00
    0.0000000000E+00    0.0000000000E+00    0.0000000000E+00    0.0000000000E+00
    0.0000000000E+00    0.0000000000E+00    0.0000000000E+00    0.0000000000E+00
    0.0000000000E+00    0.0000000000E+00    0.0000000000E+00    0.0000000000E+00
    0.0000000000E+00    0.0000000000E+00    0.0000000000E+00    0.0000000000E+00
    0.0000000000E+00    0.0000000000E+00    0.0000000000E+00    0.0000000000E+00
    0.0000000000E+00    0.0000000000E+00    0.0000000000E+00    0.0000000000E+00
    0.0000000000E+00    0.0000000000E+00    0.0000000000E+00    0.0000000000E+00
    0.0000000000E+00    0.0000000000E+00    0.0000000000E+00    0.0000000000E+00
    0.0000000000E+00    0.0000000000E+00    0.0000000000E+00    0.0000000000E+00
    0.0000000000E+00    0.0000000000E+00    0.0000000000E+00    0.0000000000E+00
    0.0000000000E+00    0.0000000000E+00    0.0000000000E+00    0.0000000000E+00
    0.0000000000E+00    0.0000000000E+00    0.0000000000E+00    0.0000000000E+00
    0.0000000000E+00    0.0000000000E+00    0.0000000000E+00    0.0000000000E+00
    0.0000000000E+00    0.0000000000E+00    0.0000000000E+00    0.0000000000E+00
    0.0000000000E+00    0.0000000000E+00    0.0000000000E+00    0.0000000000E+00
    0.0000000000E+00    0.0000000000E+00    0.0000000000E+00    0.0000000000E+00
    0.0000000000E+00    0.0000000000E+00
 </PP_NLCC>
 <PP_RHOATOM type="real"  size="1554" columns="4">
    0.0000000000E+00    1.8424977371E-04    7.4720346156E-04    1.7194238142E-03
    3.1516808937E-03    5.1147002097E-03    7.6988099629E-03    1.1013487280E-02
    1.5186803338E-02    2.0364767308E-02    2.6710569165E-02    3.4403721499E-02
    4.3639100692E-02    5.4625888051E-02    6.7586411815E-02    8.2754891338E-02
    1.0037608522E-01    1.2070384568E-01    1.4399958221E-01    1.7053063794E-01
    2.0056858347E-01    2.3438743314E-01    2.7226179020E-01    3.1446492796E-01
    3.6126681521E-01    4.1293209517E-01    4.6971802845E-01    5.3187241134E-01
    5.9963148208E-01    6.7321782858E-01    7.5283831203E-01    8.3868202180E-01
    9.3091827766E-01    1.0296946959E+00    1.1351353365E+00    1.2473389488E+00
    1.3663773328E+00    1.4922938334E+00    1.6251019846E+00    1.7647843195E+00
    1.9112913611E+00    2.0645408094E+00    2.2244169357E+00    2.3907701960E+00
    2.5634170741E+00    2.7421401591E+00    2.9266884646E+00    3.1167779917E+00
    3.3120925360E+00    3.5122847357E+00    3.7169773581E+00    3.9257648148E+00
    4.1382148973E+00    4.3538707207E+00    4.5722528600E+00    4.7928616627E+00
    5.0151797205E+00    5.2386744766E+00    5.4628009506E+00    5.6870045541E+00
    5.9107239766E+00    6.1333941147E+00    6.3544490214E+00    6.5733248493E+00
    6.7894627657E+00    7.0023118134E+00    7.2113316964E+00    7.4159954679E+00
    7.6157921014E+00    7.8102289261E+00    7.9988339101E+00    8.1811577769E+00
    8.3567759425E+00    8.5252902631E+00    8.6863305838E+00    8.8395560852E+00
    8.9846564224E+00    9.1213526546E+00    9.2493979667E+00    9.3685781843E+00
    9.4787120863E+00    9.5796515196E+00    9.6712813255E+00    9.7535190820E+00
    9.8263146747E+00    9.8896497041E+00    9.9435367411E+00    9.9880184417E+00
    1.0023166532E+01    1.0049080676E+01    1.0065887240E+01    1.0073737963E+01
    1.0072808542E+01    1.0063297157E+01    1.0045422930E+01    1.0019424336E+01
    9.9855575868E+00    9.9440949765E+00    9.8953232182E+00    9.8395417687E+00
    9.7770611562E+00    9.7082013155E+00    9.6332899403E+00    9.5526608599E+00
    9.4666524462E+00    9.3756060580E+00    9.2798645284E+00    9.1797707017E+00
    9.0756660237E+00    8.9678891918E+00    8.8567748686E+00    8.7426524631E+00
    8.6258449844E+00    8.5066679692E+00    8.3854284888E+00    8.2624242362E+00
    8.1379426961E+00    8.0122603998E+00    7.8856422654E+00    7.7583410256E+00
    7.6305967410E+00    7.5026364017E+00    7.3746736129E+00    7.2469083666E+00
    7.1195268956E+00    6.9927016077E+00    6.8665910982E+00    6.7413402375E+00
    6.6170803291E+00    6.4939293355E+00    6.3719921670E+00    6.2513611425E+00
    6.1321177052E+00    6.0143342882E+00    5.8980748427E+00    5.7833952510E+00
    5.6703437620E+00    5.5589618005E+00    5.4492849611E+00    5.3413434436E+00
    5.2351623848E+00    5.1307621799E+00    5.0281588020E+00    4.9273641096E+00
    4.8283861462E+00    4.7312294317E+00    4.6358952439E+00    4.5423818906E+00
    4.4506849717E+00    4.3607976315E+00    4.2727107995E+00    4.1864134216E+00
    4.1018926796E+00    4.0191341991E+00    3.9381222473E+00    3.8588399175E+00
    3.7812693031E+00    3.7053916590E+00    3.6311875511E+00    3.5586369936E+00
    3.4877195743E+00    3.4184145675E+00    3.3507010347E+00    3.2845579136E+00
    3.2199640948E+00    3.1568984869E+00    3.0953400586E+00    3.0352676564E+00
    2.9766596499E+00    2.9194939221E+00    2.8637479256E+00    2.8093987370E+00
    2.7564231081E+00    2.7047975140E+00    2.6544981993E+00    2.6055012216E+00
    2.5577824931E+00    2.5113178201E+00    2.4660829408E+00    2.4220535608E+00
    2.3792053873E+00    2.3375141617E+00    2.2969556896E+00    2.2575058702E+00
    2.2191407231E+00    2.1818364134E+00    2.1455692750E+00    2.1103158323E+00
    2.0760528191E+00    2.0427571963E+00    2.0104061675E+00    1.9789771924E+00
    1.9484479983E+00    1.9187965908E+00    1.8900012613E+00    1.8620405946E+00
    1.8348934742E+00    1.8085390874E+00    1.7829569290E+00    1.7581268044E+00
    1.7340288329E+00    1.7106434502E+00    1.6879514113E+00    1.6659337939E+00
    1.6445720023E+00    1.6238477763E+00    1.6037431921E+00    1.5842406656E+00
    1.5653229542E+00    1.5469731573E+00    1.5291747172E+00    1.5119114185E+00
    1.4951673873E+00    1.4789270901E+00    1.4631753317E+00    1.4478972533E+00
    1.4330783298E+00    1.4187043672E+00    1.4047614987E+00    1.3912361821E+00
    1.3781151956E+00    1.3653856337E+00    1.3530349036E+00    1.3410507205E+00
    1.3294211030E+00    1.3181343692E+00    1.3071791311E+00    1.2965442905E+00
    1.2862190339E+00    1.2761928274E+00    1.2664554117E+00    1.2569967973E+00
    1.2478072591E+00    1.2388773317E+00    1.2301978037E+00    1.2217597131E+00
    1.2135543419E+00    1.2055732109E+00    1.1978080749E+00    1.1902509173E+00
    1.1828939458E+00    1.1757295867E+00    1.1687504833E+00    1.1619494913E+00
    1.1553196760E+00    1.1488543086E+00    1.1425468629E+00    1.1363910120E+00
    1.1303806247E+00    1.1245097619E+00    1.1187726726E+00    1.1131637906E+00
    1.1076777296E+00    1.1023092798E+00    1.0970534030E+00    1.0919052285E+00
    1.0868600484E+00    1.0819133127E+00    1.0770606251E+00    1.0722977379E+00
    1.0676205471E+00    1.0630250883E+00    1.0585075315E+00    1.0540641771E+00
    1.0496914514E+00    1.0453859020E+00    1.0411441948E+00    1.0369631093E+00
    1.0328395355E+00    1.0287704703E+00    1.0247530147E+00    1.0207843705E+00
    1.0168618376E+00    1.0129828116E+00    1.0091447807E+00    1.0053453243E+00
    1.0015821100E+00    9.9785289156E-01    9.9415550728E-01    9.9048787753E-01
    9.8684800302E-01    9.8323396285E-01    9.7964391264E-01    9.7607608268E-01
    9.7252877609E-01    9.6900036706E-01    9.6548929901E-01    9.6199408281E-01
    9.5851329505E-01    9.5504557624E-01    9.5158962908E-01    9.4814421675E-01
    9.4470816118E-01    9.4128034135E-01    9.3785969162E-01    9.3444520006E-01
    9.3103590684E-01    9.2763090257E-01    9.2422932677E-01    9.2083036625E-01
    9.1743325362E-01    9.1403726574E-01    9.1064172228E-01    9.0724598425E-01
    9.0384945258E-01    9.0045156674E-01    8.9705180339E-01    8.9364967503E-01
    8.9024472873E-01    8.8683654486E-01    8.8342473589E-01    8.8000894512E-01
    8.7658884561E-01    8.7316413895E-01    8.6973455424E-01    8.6629984697E-01
    8.6285979799E-01    8.5941421250E-01    8.5596291905E-01    8.5250576864E-01
    8.4904263372E-01    8.4557340735E-01    8.4209800232E-01    8.3861635028E-01
    8.3512840097E-01    8.3163412138E-01    8.2813349503E-01    8.2462652120E-01
    8.2111321422E-01    8.1759360278E-01    8.1406772928E-01    8.1053564912E-01
    8.0699743016E-01    8.0345315204E-01    7.9990290563E-01    7.9634679248E-01
    7.9278492423E-01    7.8921742210E-01    7.8564441642E-01    7.8206604608E-01
    7.7848245809E-01    7.7489380712E-01    7.7130025505E-01    7.6770197055E-01
    7.6409912866E-01    7.6049191043E-01    7.5688050247E-01    7.5326509666E-01
    7.4964588975E-01    7.4602308301E-01    7.4239688195E-01    7.3876749595E-01
    7.3513513800E-01    7.3150002437E-01    7.2786237435E-01    7.2422240997E-01
    7.2058035575E-01    7.1693643842E-01    7.1329088672E-01    7.0964393113E-01
    7.0599580368E-01    7.0234673770E-01    6.9869696765E-01    6.9504672889E-01
    6.9139625751E-01    6.8774579015E-01    6.8409556381E-01    6.8044581569E-01
    6.7679678303E-01    6.7314870298E-01    6.6950181238E-01    6.6585634772E-01
    6.6221254492E-01    6.5857063923E-01    6.5493086513E-01    6.5129345618E-01
    6.4765864493E-01    6.4402666277E-01    6.4039773990E-01    6.3677210517E-01
    6.3314998599E-01    6.2953160828E-01    6.2591719636E-01    6.2230697288E-01
    6.1870115872E-01    6.1509997294E-01    6.1150363271E-01    6.0791235325E-01
    6.0432634773E-01    6.0074582727E-01    5.9717100085E-01    5.9360207525E-01
    5.9003925504E-01    5.8648274250E-01    5.8293273757E-01    5.7938943787E-01
    5.7585303857E-01    5.7232373246E-01    5.6880170982E-01    5.6528715846E-01
    5.6178026365E-01    5.5828120813E-01    5.5479017206E-01    5.5130733301E-01
    5.4783286592E-01    5.4436694314E-01    5.4090973434E-01    5.3746140656E-01
    5.3402212415E-01    5.3059204880E-01    5.2717133950E-01    5.2376015255E-01
    5.2035864156E-01    5.1696695742E-01    5.1358524834E-01    5.1021365981E-01
    5.0685233459E-01    5.0350141279E-01    5.0016103176E-01    4.9683132619E-01
    4.9351242807E-01    4.9020446668E-01    4.8690756865E-01    4.8362185792E-01
    4.8034745576E-01    4.7708448080E-01    4.7383304901E-01    4.7059327374E-01
    4.6736526571E-01    4.6414913303E-01    4.6094498123E-01    4.5775291323E-01
    4.5457302942E-01    4.5140542761E-01    4.4825020309E-01    4.4510744863E-01
    4.4197725449E-01    4.3885970845E-01    4.3575489584E-01    4.3266289952E-01
    4.2958379993E-01    4.2651767511E-01    4.2346460070E-01    4.2042464997E-01
    4.1739789386E-01    4.1438440096E-01    4.1138423756E-01    4.0839746767E-01
    4.0542415303E-01    4.0246435314E-01    3.9951812529E-01    3.9658552456E-01
    3.9366660385E-01    3.9076141392E-01    3.8787000340E-01    3.8499241881E-01
    3.8212870458E-01    3.7927890309E-01    3.7644305468E-01    3.7362119767E-01
    3.7081336840E-01    3.6801960124E-01    3.6523992860E-01    3.6247438101E-01
    3.5972298707E-01    3.5698577351E-01    3.5426276525E-01    3.5155398533E-01
    3.4885945497E-01    3.4617919369E-01    3.4351321927E-01    3.4086154770E-01
    3.3822419329E-01    3.3560116865E-01    3.3299248475E-01    3.3039815092E-01
    3.2781817488E-01    3.2525256274E-01    3.2270131909E-01    3.2016444694E-01
    3.1764194779E-01    3.1513382166E-01    3.1264006708E-01    3.1016068115E-01
    3.0769565952E-01    3.0524499645E-01    3.0280868481E-01    3.0038671613E-01
    2.9797908059E-01    2.9558576704E-01    2.9320676306E-01    2.9084205496E-01
    2.8849162779E-01    2.8615546536E-01    2.8383355031E-01    2.8152586405E-01
    2.7923238687E-01    2.7695309788E-01    2.7468797510E-01    2.7243699542E-01
    2.7020013467E-01    2.6797736760E-01    2.6576866795E-01    2.6357400840E-01
    2.6139336065E-01    2.5922669543E-01    2.5707398249E-01    2.5493519064E-01
    2.5281028777E-01    2.5069924087E-01    2.4860201603E-01    2.4651857850E-01
    2.4444889264E-01    2.4239292202E-01    2.4035062937E-01    2.3832197665E-01
    2.3630692502E-01    2.3430543488E-01    2.3231746591E-01    2.3034297705E-01
    2.2838192653E-01    2.2643427190E-01    2.2449997001E-01    2.2257897709E-01
    2.2067124869E-01    2.1877673976E-01    2.1689540463E-01    2.1502719703E-01
    2.1317207013E-01    2.1132997650E-01    2.0950086820E-01    2.0768469674E-01
    2.0588141310E-01    2.0409096777E-01    2.0231331075E-01    2.0054839155E-01
    1.9879615924E-01    1.9705656243E-01    1.9532954928E-01    1.9361506756E-01
    1.9191306461E-01    1.9022348738E-01    1.8854628245E-01    1.8688139601E-01
    1.8522877391E-01    1.8358836166E-01    1.8196010443E-01    1.8034394707E-01
    1.7873983412E-01    1.7714770984E-01    1.7556751819E-01    1.7399920286E-01
    1.7244270729E-01    1.7089797466E-01    1.6936494792E-01    1.6784356977E-01
    1.6633378273E-01    1.6483552908E-01    1.6334875091E-01    1.6187339014E-01
    1.6040938850E-01    1.5895668754E-01    1.5751522869E-01    1.5608495321E-01
    1.5466580221E-01    1.5325771669E-01    1.5186063752E-01    1.5047450548E-01
    1.4909926123E-01    1.4773484533E-01    1.4638119827E-01    1.4503826046E-01
    1.4370597225E-01    1.4238427391E-01    1.4107310567E-01    1.3977240773E-01
    1.3848212023E-01    1.3720218330E-01    1.3593253703E-01    1.3467312151E-01
    1.3342387682E-01    1.3218474304E-01    1.3095566026E-01    1.2973656858E-01
    1.2852740813E-01    1.2732811905E-01    1.2613864153E-01    1.2495891578E-01
    1.2378888209E-01    1.2262848077E-01    1.2147765220E-01    1.2033633683E-01
    1.1920447517E-01    1.1808200782E-01    1.1696887543E-01    1.1586501877E-01
    1.1477037869E-01    1.1368489613E-01    1.1260851214E-01    1.1154116788E-01
    1.1048280460E-01    1.0943336369E-01    1.0839278665E-01    1.0736101512E-01
    1.0633799084E-01    1.0532365572E-01    1.0431795177E-01    1.0332082118E-01
    1.0233220627E-01    1.0135204951E-01    1.0038029352E-01    9.9416881084E-02
    9.8461755155E-02    9.7514858842E-02    9.6576135427E-02    9.5645528363E-02
    9.4722981279E-02    9.3808437986E-02    9.2901842474E-02    9.2003138920E-02
    9.1112271689E-02    9.0229185339E-02    8.9353824620E-02    8.8486134481E-02
    8.7626060069E-02    8.6773546734E-02    8.5928540031E-02    8.5090985723E-02
    8.4260829783E-02    8.3438018394E-02    8.2622497955E-02    8.1814215081E-02
    8.1013116606E-02    8.0219149585E-02    7.9432261295E-02    7.8652399239E-02
    7.7879511143E-02    7.7113544966E-02    7.6354448893E-02    7.5602171344E-02
    7.4856660969E-02    7.4117866655E-02    7.3385737525E-02    7.2660222940E-02
    7.1941272498E-02    7.1228836040E-02    7.0522863649E-02    6.9823305647E-02
    6.9130112605E-02    6.8443235335E-02    6.7762624898E-02    6.7088232602E-02
    6.6420010000E-02    6.5757908899E-02    6.5101881353E-02    6.4451879665E-02
    6.3807856394E-02    6.3169764347E-02    6.2537556587E-02    6.1911186428E-02
    6.1290607439E-02    6.0675773444E-02    6.0066638522E-02    5.9463157007E-02
    5.8865283488E-02    5.8272972814E-02    5.7686180085E-02    5.7104860664E-02
    5.6528970166E-02    5.5958464466E-02    5.5393299697E-02    5.4833432249E-02
    5.4278818768E-02    5.3729416161E-02    5.3185181592E-02    5.2646072481E-02
    5.2112046508E-02    5.1583061612E-02    5.1059075986E-02    5.0540048084E-02
    5.0025936616E-02    4.9516700550E-02    4.9012299110E-02    4.8512691779E-02
    4.8017838296E-02    4.7527698654E-02    4.7042233105E-02    4.6561402156E-02
    4.6085166568E-02    4.5613487358E-02    4.5146325799E-02    4.4683643415E-02
    4.4225401987E-02    4.3771563546E-02    4.3322090377E-02    4.2876945019E-02
    4.2436090259E-02    4.1999489139E-02    4.1567104947E-02    4.1138901225E-02
    4.0714841762E-02    4.0294890595E-02    3.9879012011E-02    3.9467170543E-02
    3.9059330970E-02    3.8655458317E-02    3.8255517855E-02    3.7859475099E-02
    3.7467295807E-02    3.7078945980E-02    3.6694391860E-02    3.6313599933E-02
    3.5936536923E-02    3.5563169793E-02    3.5193465746E-02    3.4827392222E-02
    3.4464916900E-02    3.4106007692E-02    3.3750632747E-02    3.3398760447E-02
    3.3050359409E-02    3.2705398480E-02    3.2363846740E-02    3.2025673501E-02
    3.1690848300E-02    3.1359340907E-02    3.1031121317E-02    3.0706159752E-02
    3.0384426661E-02    3.0065892715E-02    2.9750528810E-02    2.9438306066E-02
    2.9129195821E-02    2.8823169635E-02    2.8520199290E-02    2.8220256782E-02
    2.7923314327E-02    2.7629344357E-02    2.7338319517E-02    2.7050212669E-02
    2.6764996887E-02    2.6482645456E-02    2.6203131873E-02    2.5926429844E-02
    2.5652513283E-02    2.5381356314E-02    2.5112933265E-02    2.4847218670E-02
    2.4584187267E-02    2.4323813999E-02    2.4066074008E-02    2.3810942639E-02
    2.3558395436E-02    2.3308408142E-02    2.3060956696E-02    2.2816017235E-02
    2.2573566092E-02    2.2333579791E-02    2.2096035053E-02    2.1860908786E-02
    2.1628178094E-02    2.1397820266E-02    2.1169812781E-02    2.0944133308E-02
    2.0720759698E-02    2.0499669989E-02    2.0280842403E-02    2.0064255344E-02
    1.9849887398E-02    1.9637717332E-02    1.9427724091E-02    1.9219886800E-02
    1.9014184759E-02    1.8810597446E-02    1.8609104511E-02    1.8409685781E-02
    1.8212321254E-02    1.8016991098E-02    1.7823675654E-02    1.7632355430E-02
    1.7443011102E-02    1.7255623516E-02    1.7070173679E-02    1.6886642767E-02
    1.6705012117E-02    1.6525263228E-02    1.6347377763E-02    1.6171337544E-02
    1.5997124550E-02    1.5824720921E-02    1.5654108953E-02    1.5485271097E-02
    1.5318189960E-02    1.5152848301E-02    1.4989229033E-02    1.4827315219E-02
    1.4667090075E-02    1.4508536964E-02    1.4351639398E-02    1.4196381035E-02
    1.4042745682E-02    1.3890717288E-02    1.3740279947E-02    1.3591417896E-02
    1.3444115515E-02    1.3298357324E-02    1.3154127981E-02    1.3011412285E-02
    1.2870195173E-02    1.2730461716E-02    1.2592197124E-02    1.2455386739E-02
    1.2320016038E-02    1.2186070629E-02    1.2053536255E-02    1.1922398785E-02
    1.1792644222E-02    1.1664258694E-02    1.1537228458E-02    1.1411539899E-02
    1.1287179525E-02    1.1164133971E-02    1.1042389993E-02    1.0921934473E-02
    1.0802754412E-02    1.0684836933E-02    1.0568169279E-02    1.0452738811E-02
    1.0338533009E-02    1.0225539468E-02    1.0113745902E-02    1.0003140137E-02
    9.8937101164E-03    9.7854438940E-03    9.6783296375E-03    9.5723556257E-03
    9.4675102478E-03    9.3637820029E-03    9.2611594987E-03    9.1596314506E-03
    9.0591866813E-03    8.9598141192E-03    8.8615027983E-03    8.7642418566E-03
    8.6680205358E-03    8.5728281801E-03    8.4786542354E-03    8.3854882488E-03
    8.2933198671E-03    8.2021388365E-03    8.1119350015E-03    8.0226983044E-03
    7.9344187839E-03    7.8470865748E-03    7.7606919071E-03    7.6752251047E-03
    7.5906765855E-03    7.5070368597E-03    7.4242965295E-03    7.3424462883E-03
    7.2614769198E-03    7.1813792971E-03    7.1021443821E-03    7.0237632249E-03
    6.9462269627E-03    6.8695268191E-03    6.7936541036E-03    6.7186002104E-03
    6.6443566184E-03    6.5709148894E-03    6.4982666686E-03    6.4264036826E-03
    6.3553177399E-03    6.2850007292E-03    6.2154446192E-03    6.1466414578E-03
    6.0785833714E-03    6.0112625641E-03    5.9446713170E-03    5.8788019879E-03
    5.8136470100E-03    5.7491988916E-03    5.6854502155E-03    5.6223936380E-03
    5.5600218886E-03    5.4983277690E-03    5.4373041527E-03    5.3769439844E-03
    5.3172402789E-03    5.2581861210E-03    5.1997746646E-03    5.1419991321E-03
    5.0848528139E-03    5.0283290675E-03    4.9724213171E-03    4.9171230530E-03
    4.8624278309E-03    4.8083292713E-03    4.7548210590E-03    4.7018969424E-03
    4.6495507330E-03    4.5977763046E-03    4.5465675931E-03    4.4959185956E-03
    4.4458233701E-03    4.3962760346E-03    4.3472707667E-03    4.2988018032E-03
    4.2508634393E-03    4.2034500284E-03    4.1565559809E-03    4.1101757644E-03
    4.0643039028E-03    4.0189349758E-03    3.9740636182E-03    3.9296845197E-03
    3.8857924245E-03    3.8423821300E-03    3.7994484874E-03    3.7569864001E-03
    3.7149908240E-03    3.6734567668E-03    3.6323792871E-03    3.5917534946E-03
    3.5515745490E-03    3.5118376598E-03    3.4725380860E-03    3.4336711351E-03
    3.3952321632E-03    3.3572165742E-03    3.3196198195E-03    3.2824373973E-03
    3.2456648525E-03    3.2092977759E-03    3.1733318040E-03    3.1377626186E-03
    3.1025859461E-03    3.0677975571E-03    3.0333932664E-03    2.9993689319E-03
    2.9657204547E-03    2.9324437786E-03    2.8995348894E-03    2.8669898147E-03
    2.8348046236E-03    2.8029754261E-03    2.7714983727E-03    2.7403696541E-03
    2.7095855008E-03    2.6791421827E-03    2.6490360086E-03    2.6192633260E-03
    2.5898205206E-03    2.5607040158E-03    2.5319102728E-03    2.5034357895E-03
    2.4752771008E-03    2.4474307780E-03    2.4198934283E-03    2.3926616944E-03
    2.3657322547E-03    2.3391018222E-03    2.3127671446E-03    2.2867250038E-03
    2.2609722158E-03    2.2355056300E-03    2.2103221290E-03    2.1854186285E-03
    2.1607920766E-03    2.1364394536E-03    2.1123577720E-03    2.0885440757E-03
    2.0649954397E-03    2.0417089704E-03    2.0186818046E-03    1.9959111094E-03
    1.9733940820E-03    1.9511279495E-03    1.9291099682E-03    1.9073374237E-03
    1.8858076302E-03    1.8645179309E-03    1.8434656968E-03    1.8226483272E-03
    1.8020632489E-03    1.7817079161E-03    1.7615798104E-03    1.7416764398E-03
    1.7219953394E-03    1.7025340702E-03    1.6832902193E-03    1.6642613999E-03
    1.6454452504E-03    1.6268394344E-03    1.6084416407E-03    1.5902495828E-03
    1.5722609985E-03    1.5544736502E-03    1.5368853238E-03    1.5194938293E-03
    1.5022970001E-03    1.4852926928E-03    1.4684787870E-03    1.4518531852E-03
    1.4354138122E-03    1.4191586154E-03    1.4030855640E-03    1.3871926492E-03
    1.3714778839E-03    1.3559393022E-03    1.3405749594E-03    1.3253829320E-03
    1.3103613169E-03    1.2955082317E-03    1.2808218144E-03    1.2663002228E-03
    1.2519416350E-03    1.2377442485E-03    1.2237062802E-03    1.2098259666E-03
    1.1961015630E-03    1.1825313436E-03    1.1691136015E-03    1.1558466480E-03
    1.1427288129E-03    1.1297584440E-03    1.1169339070E-03    1.1042535854E-03
    1.0917158800E-03    1.0793192094E-03    1.0670620089E-03    1.0549427311E-03
    1.0429598452E-03    1.0311118373E-03    1.0193972097E-03    1.0078144810E-03
    9.9636218620E-04    9.8503887592E-04    9.7384311670E-04    9.6277349070E-04
    9.5182859549E-04    9.4100704393E-04    9.3030746402E-04    9.1972849870E-04
    9.0926880573E-04    8.9892705751E-04    8.8870194094E-04    8.7859215724E-04
    8.6859642185E-04    8.5871346420E-04    8.4894202766E-04    8.3928086930E-04
    8.2972875980E-04    8.2028448330E-04    8.1094683723E-04    8.0171463219E-04
    7.9258669181E-04    7.8356185261E-04    7.7463896385E-04    7.6581688741E-04
    7.5709449765E-04    7.4847068127E-04    7.3994433719E-04    7.3151437642E-04
    7.2317972191E-04    7.1493930846E-04    7.0679208255E-04    6.9873700224E-04
    6.9077303705E-04    6.8289916782E-04    6.7511438661E-04    6.6741769657E-04
    6.5980811179E-04    6.5228465724E-04    6.4484636863E-04    6.3749229226E-04
    6.3022148497E-04    6.2303301396E-04    6.1592595674E-04    6.0889940098E-04
    6.0195244441E-04    5.9508419471E-04    5.8829376941E-04    5.8158029578E-04
    5.7494291073E-04    5.6838076070E-04    5.6189300154E-04    5.5547879845E-04
    5.4913732585E-04    5.4286776729E-04    5.3666931533E-04    5.3054117148E-04
    5.2448254607E-04    5.1849265819E-04    5.1257073554E-04    5.0671601440E-04
    5.0092773950E-04    4.9520516393E-04    4.8954754906E-04    4.8395416444E-04
    4.7842428772E-04    4.7295720457E-04    4.6755220857E-04    4.6220860114E-04
    4.5692569145E-04    4.5170279633E-04    4.4653924021E-04    4.4143435502E-04
    4.3638748009E-04    4.3139796211E-04    4.2646515502E-04    4.2158841994E-04
    4.1676712509E-04    4.1200064573E-04    4.0728836404E-04    4.0262966910E-04
    3.9802395677E-04    3.9347062964E-04    3.8896909695E-04    3.8451877451E-04
    3.8011908466E-04    3.7576945614E-04    3.7146932408E-04    3.6721812988E-04
    3.6301532120E-04    3.5886035183E-04    3.5475268166E-04    3.5069177659E-04
    3.4667710851E-04    3.4270815518E-04    3.3878440017E-04    3.3490533286E-04
    3.3107044829E-04    3.2727924716E-04    3.2353123574E-04    3.1982592582E-04
    3.1616283463E-04    3.1254148481E-04    3.0896140434E-04    3.0542212646E-04
    3.0192318963E-04    2.9846413750E-04    2.9504451879E-04    2.9166388728E-04
    2.8832180176E-04    2.8501782594E-04    2.8175152841E-04    2.7852248261E-04
    2.7533026675E-04    2.7217446374E-04    2.6905466121E-04    2.6597045136E-04
    2.6292143100E-04    2.5990720144E-04    2.5692736846E-04    2.5398154226E-04
    2.5106933743E-04    2.4819037285E-04    2.4534427171E-04    2.4253066140E-04
    2.3974917352E-04    2.3699944377E-04    2.3428111197E-04    2.3159382197E-04
    2.2893722163E-04    2.2631096276E-04    2.2371470107E-04    2.2114809615E-04
    2.1861081142E-04    2.1610251408E-04    2.1362287507E-04    2.1117156902E-04
    2.0874827423E-04    2.0635267262E-04    2.0398444969E-04    2.0164329446E-04
    1.9932889947E-04    1.9704096071E-04    1.9477917760E-04    1.9254325293E-04
    1.9033289285E-04    1.8814780682E-04    1.8598770755E-04    1.8385231102E-04
    1.8174133639E-04    1.7965450598E-04    1.7759154525E-04    1.7555218275E-04
    1.7353615010E-04    1.7154318193E-04    1.6957301588E-04    1.6762539253E-04
    1.6570005540E-04    1.6379675089E-04    1.6191522829E-04    1.6005523969E-04
    1.5821653999E-04    1.5639888685E-04    1.5460204067E-04    1.5282576457E-04
    1.5106982432E-04    1.4933398835E-04    1.4761802771E-04    1.4592171601E-04
    1.4424482946E-04    1.4258714677E-04    1.4094844915E-04    1.3932852030E-04
    1.3772714635E-04    1.3614411585E-04    1.3457921977E-04    1.3303225139E-04
    1.3150300637E-04    1.2999128268E-04    1.2849688055E-04    1.2701960250E-04
    1.2555925325E-04    1.2411563978E-04    1.2268857120E-04    1.2127785882E-04
    1.1988331608E-04    1.1850475851E-04    1.1714200376E-04    1.1579487153E-04
    1.1446318356E-04    1.1314676361E-04    1.1184543745E-04    1.1055903280E-04
    1.0928737937E-04    1.0803030876E-04    1.0678765450E-04    1.0555925201E-04
    1.0434493857E-04    1.0314455330E-04    1.0195793716E-04    1.0078493290E-04
    9.9625385054E-05    9.8479139932E-05    9.7346045578E-05    9.6225951763E-05
    9.5118709964E-05    9.4024173341E-05    9.2942196725E-05    9.1872636592E-05
    9.0815351049E-05    8.9770199815E-05    8.8737044200E-05    8.7715747091E-05
    8.6706172933E-05    8.5708187710E-05    8.4721658927E-05    8.3746455599E-05
    8.2782448226E-05    8.1829508781E-05    8.0887510692E-05    7.9956328826E-05
    7.9035839473E-05    7.8125920329E-05    7.7226450482E-05    7.6337310392E-05
    7.5458381883E-05    7.4589548120E-05    7.3730693598E-05    7.2881704126E-05
    7.2042466813E-05    7.1212870053E-05    7.0392803508E-05    6.9582158098E-05
    6.8780825982E-05    6.7988700551E-05    6.7205676405E-05    6.6431649348E-05
    6.5666516367E-05    6.4910175624E-05    6.4162526441E-05    6.3423469286E-05
    6.2692905762E-05    6.1970738591E-05    6.1256871606E-05    6.0551209732E-05
    5.9853658981E-05    5.9164126434E-05    5.8482520232E-05    5.7808749563E-05
    5.7142724650E-05    5.6484356739E-05    5.5833558088E-05    5.5190241957E-05
    5.4554322594E-05    5.3925715223E-05    5.3304336039E-05    5.2690102189E-05
    5.2082931767E-05    5.1482743803E-05    5.0889458247E-05    5.0302995965E-05
    4.9723278725E-05    4.9150229189E-05    4.8583770900E-05    4.8023828275E-05
    4.7470326592E-05    4.6923191985E-05    4.6382351428E-05    4.5847732731E-05
    4.5319264527E-05    4.4796876265E-05    4.4280498199E-05    4.3770061380E-05
    4.3265497645E-05    4.2766739612E-05    4.2273720667E-05    4.1786374959E-05
    4.1304637386E-05    4.0828443593E-05    4.0357729958E-05    3.9892433590E-05
    3.9432492311E-05    3.8977844659E-05    3.8528429870E-05    3.8084187879E-05
    3.7645059305E-05    3.7210985445E-05    3.6781908270E-05    3.6357770413E-05
    3.5938515163E-05    3.5524086456E-05    3.5114428874E-05    3.4709487627E-05
    3.4309208556E-05    3.3913538118E-05    3.3522423387E-05    3.3135812038E-05
    3.2753652348E-05    3.2375893184E-05    3.2002483998E-05    3.1633374821E-05
    3.1268516257E-05    3.0907859473E-05    3.0551356198E-05    3.0198958709E-05
    2.9850619835E-05    2.9506292940E-05    2.9165931924E-05    2.8829491216E-05
    2.8496925765E-05    2.8168191037E-05    2.7843243007E-05    2.7522038154E-05
    2.7204533458E-05    2.6890686388E-05    2.6580454903E-05    2.6273797443E-05
    2.5970672923E-05    2.5671040729E-05    2.5374860714E-05    2.5082093190E-05
    2.4792698922E-05    2.4506639127E-05    2.4223875466E-05    2.3944370038E-05
    2.3668085378E-05    2.3394984450E-05    2.3125030642E-05    2.2858187762E-05
    2.2594420033E-05    2.2333692088E-05    2.2075968966E-05    2.1821216106E-05
    2.1569399343E-05    2.1320484906E-05    2.1074439409E-05    2.0831229849E-05
    2.0590823604E-05    2.0353188422E-05    2.0118292425E-05    1.9886104098E-05
    1.9656592288E-05    1.9429726201E-05    1.9205475394E-05    1.8983809775E-05
    1.8764699596E-05    1.8548115452E-05    1.8334028273E-05    1.8122409325E-05
    1.7913230202E-05    1.7706462825E-05    1.7502079436E-05    1.7300052599E-05
    1.7100355188E-05    1.6902960391E-05    1.6707841705E-05    1.6514972929E-05
    1.6324328164E-05    1.6135881807E-05    1.5949608551E-05    1.5765483379E-05
    1.5583481559E-05    1.5403578647E-05    1.5225750475E-05    1.5049973157E-05
    1.4876223078E-05    1.4704476897E-05    1.4534711538E-05    1.4366904193E-05
    1.4201032314E-05    1.4037073613E-05    1.3875006058E-05    1.3714807870E-05
    1.3556457519E-05    1.3399933724E-05    1.3245215447E-05    1.3092281895E-05
    1.2941112510E-05    1.2791686971E-05    1.2643985193E-05    1.2497987319E-05
    1.2353673723E-05    1.2211025001E-05    1.2070021974E-05    1.1930645685E-05
    1.1792877392E-05    1.1656698570E-05    1.1522090906E-05    1.1389036300E-05
    1.1257516856E-05    1.1127514888E-05    1.0999012910E-05    1.0871993639E-05
    1.0746439990E-05    1.0622335074E-05    1.0499662198E-05    1.0378404858E-05
    1.0258546743E-05    1.0140071728E-05    1.0022963872E-05    9.9072074209E-06
    9.7927867984E-06    9.6796866092E-06    9.5678916344E-06    9.4573868306E-06
    9.3481573269E-06    9.2401884240E-06    9.1334655913E-06    9.0279744657E-06
    8.9237008490E-06    8.8206307066E-06    8.7187501652E-06    8.6180455114E-06
    8.5185031892E-06    8.4201097990E-06    8.3228520950E-06    8.2267169840E-06
    8.1316915236E-06    8.0377629202E-06    7.9449185273E-06    7.8531458443E-06
    7.7624325142E-06    7.6727663222E-06    7.5841351943E-06    7.4965271954E-06
    7.4099305277E-06    7.3243335292E-06    7.2397246723E-06    7.1560925619E-06
    7.0734259343E-06    6.9917136552E-06    6.9109447189E-06    6.8311082459E-06
    6.7521934824E-06    6.6741897982E-06    6.5970866854E-06    6.5208737574E-06
    6.4455407470E-06    6.3710775053E-06    6.2974740001E-06    6.2247203150E-06
    6.1528066476E-06    6.0817233084E-06    6.0114607197E-06    5.9420094138E-06
    5.8733600323E-06    5.8055033245E-06    5.7384301461E-06    5.6721314585E-06
    5.6065983268E-06    5.5418219192E-06    5.4777935058E-06    5.4145044570E-06
    5.3519462427E-06    5.2901104312E-06    5.2289886877E-06    5.1685727737E-06
    5.1088545454E-06    5.0498259529E-06    4.9914790391E-06    4.9338059385E-06
    4.8767988763E-06    4.8204501672E-06    4.7647522146E-06    4.7096975092E-06
    4.6552786286E-06    4.6014882356E-06    4.5483190776E-06    4.4957639858E-06
    4.4438158738E-06    4.3924677370E-06    4.3417126515E-06    4.2915437730E-06
    4.2419543365E-06    4.1929376546E-06    4.1444871171E-06    4.0965961901E-06
    4.0492584150E-06    4.0024674074E-06    3.9562168567E-06    3.9105005251E-06
    3.8653122466E-06    3.8206459264E-06    3.7764955397E-06    3.7328551314E-06
    3.6897188151E-06    3.6470807720E-06    3.6049352507E-06    3.5632765658E-06
    3.5220990977E-06    3.4813972915E-06    3.4411656563E-06    3.4013987646E-06
    3.3620912515E-06    3.3232378138E-06    3.2848332096E-06    3.2468722575E-06
    3.2093498357E-06    3.1722608815E-06    3.1356003907E-06    3.0993634167E-06
    3.0635450699E-06    3.0281405172E-06    2.9931449813E-06    2.9585537397E-06
    2.9243621248E-06    2.8905655225E-06    2.8571593720E-06    2.8241391652E-06
    2.7915004458E-06    2.7592388092E-06    2.7273499014E-06    2.6958294186E-06
    2.6646731068E-06    2.6338767609E-06    2.6034362244E-06    2.5733473887E-06
    2.5436061928E-06    2.5142086222E-06
 </PP_RHOATOM>
 <PP_TAUMOD type="real"  size="1554" columns="4">
    2.6140748716E+01    2.6132544359E+01    2.6107942120E+01    2.6066974483E+01
    2.6009695544E+01    2.5936180951E+01    2.5846527820E+01    2.5740854619E+01
    2.5619301034E+01    2.5482027809E+01    2.5329216561E+01    2.5161069565E+01
    2.4977809524E+01    2.4779679309E+01    2.4566941670E+01    2.4339878931E+01
    2.4098792654E+01    2.3844003282E+01    2.3575849751E+01    2.3294689088E+01
    2.3000895974E+01    2.2694862286E+01    2.2376996615E+01    2.2047723762E+01
    2.1707484201E+01    2.1356733524E+01    2.0995941862E+01    2.0625593274E+01
    2.0246185121E+01    1.9858227407E+01    1.9462242099E+01    1.9058762423E+01
    1.8648332133E+01    1.8231504756E+01    1.7808842814E+01    1.7380917018E+01
    1.6948305439E+01    1.6511592658E+01    1.6071368882E+01    1.5628229045E+01
    1.5182771877E+01    1.4735598956E+01    1.4287313724E+01    1.3838520490E+01
    1.3389823402E+01    1.2941825393E+01    1.2495127108E+01    1.2050325800E+01
    1.1608014206E+01    1.1168779396E+01    1.0733201595E+01    1.0301852988E+01
    9.8752964911E+00    9.4540845023E+00    9.0387576288E+00    8.6298433864E+00
    8.2278548766E+00    7.8332894372E+00    7.4466272698E+00    7.0683300407E+00
    6.6988394590E+00    6.3385758286E+00    5.9879365756E+00    5.6472947520E+00
    5.3169975131E+00    4.9973645713E+00    4.6886866247E+00    4.3912237613E+00
    4.1052038379E+00    3.8308208345E+00    3.5682331843E+00    3.3175620788E+00
    3.0788897473E+00    2.8522577131E+00    2.6376650240E+00    2.4350664583E+00
    2.2443707057E+00    2.0654385246E+00    1.8980808730E+00    1.7420570159E+00
    1.5970726078E+00    1.4627777496E+00    1.3387650221E+00    1.2245674934E+00
    1.1196567025E+00    1.0234406179E+00    9.3526157109E-01    8.5439418369E-01
    7.8006176290E-01    7.1154276362E-01    6.4822585517E-01    5.8959632234E-01
    5.3522090120E-01    4.8473435311E-01    4.3782775020E-01    3.9423839119E-01
    3.5374122396E-01    3.1614162589E-01    2.8126938527E-01    2.4897373116E-01
    2.1911926962E-01    1.9158269704E-01    1.6625017163E-01    1.4301523314E-01
    1.2177716764E-01    1.0243972249E-01    8.4910087542E-02    6.9098073015E-02
    5.4915433249E-02    4.2275303552E-02    3.1091734076E-02    2.1279317087E-02
    1.2752911476E-02    5.4274705199E-03   -7.8202298093E-04   -5.9605143811E-03
   -1.0192732742E-02   -1.3562953559E-02   -1.6154680800E-02   -1.8050261679E-02
   -1.9330447588E-02   -2.0073913657E-02   -2.0356747992E-02   -2.0251920038E-02
   -1.9828735933E-02   -1.9152287300E-02   -1.8282898665E-02   -1.7275577575E-02
   -1.6179470494E-02   -1.5037326893E-02   -1.3884971782E-02   -1.2749139366E-02
   -1.1643493400E-02   -1.0577767280E-02   -9.5604524065E-03   -8.5988489767E-03
   -7.6986331371E-03   -6.8609494336E-03   -6.0848099875E-03   -5.3688295285E-03
   -4.7112917028E-03   -4.1102028533E-03   -3.5633411911E-03   -3.0683015322E-03
   -2.6225357756E-03   -2.2233893111E-03   -1.8681335666E-03   -1.5539949122E-03
   -1.2781801599E-03   -1.0378989033E-03   -8.3038295491E-04   -6.5290314018E-04
   -5.0278371489E-04   -3.7741466608E-04   -2.7426215532E-04   -1.9087735228E-04
   -1.2490389494E-04   -7.4084196246E-05   -3.6264797966E-05   -9.4009502234E-06
    8.4394295231E-06    1.9072292214E-05    2.4194388231E-05    2.5380525601E-05
    2.4081169667E-05    2.1619900469E-05    1.9113344600E-05    1.6895778156E-05
    1.4935801829E-05    1.3203422541E-05    1.1672096955E-05    1.0318404316E-05
    9.1216756813E-06    8.0636672833E-06    7.1282727069E-06    6.3012694233E-06
    5.5700954997E-06    4.9236530520E-06    4.3521351829E-06    3.8468737222E-06
    3.4002051749E-06    3.0053528410E-06    2.6563230479E-06    2.3478138204E-06
    2.0751344987E-06    1.8341349032E-06    1.6211429226E-06    1.4329094627E-06
    1.2665598500E-06    1.1195509026E-06    9.8963302005E-07    8.7481661125E-07
    7.7334243998E-07    6.8365534538E-07    6.0438099649E-07    5.3430528526E-07
    4.7235603606E-07    4.1758692087E-07    3.6916663888E-07    3.2632717669E-07
    2.8854359298E-07    2.5465260015E-07    2.2542616132E-07    1.9929228569E-07
    1.7624296073E-07    1.5579100711E-07    1.3771904430E-07    1.2174267037E-07
    1.0761905449E-07    9.5133698444E-08    8.4096804462E-08    7.4340489217E-08
    6.5716282852E-08    5.8092890651E-08    5.1354220759E-08    4.5397624100E-08
    4.0132349176E-08    3.5478164249E-08    3.1364140993E-08    2.7727578978E-08
    2.4513052395E-08    2.1671566389E-08    1.9159812539E-08    1.6939508339E-08
    1.4976814689E-08    1.3241820018E-08    1.1708084642E-08    1.0352238072E-08
    9.1536231161E-09    8.0939814692E-09    7.1571758629E-09    6.3289444870E-09
    5.5966837494E-09    4.9492558768E-09    4.3768181437E-09    3.8706714500E-09
    3.4231270450E-09    3.0273890801E-09    2.6774508843E-09    2.3680029819E-09
    2.0943544368E-09    1.8523615868E-09    1.6383607702E-09    1.4491119729E-09
    1.2817500098E-09    1.1337412905E-09    1.0028455627E-09    8.8708204759E-10
    7.8469945823E-10    6.9414945520E-10    6.1406314711E-10    5.4323029033E-10
    4.8058088254E-10    4.2516887929E-10    3.7615779350E-10    3.3280796420E-10
    2.9446530470E-10    2.6055136095E-10    2.3055452958E-10    2.0402230176E-10
    1.8055441348E-10    1.5979679675E-10    1.4143623743E-10    1.2519565669E-10
    1.1082994241E-10    9.8122265237E-11    8.6880822281E-11    7.6935957479E-11
    6.8137614441E-11    6.0353082510E-11    5.3465001733E-11    4.7369596546E-11
    4.1975111646E-11    3.7200426730E-11    3.2973829572E-11    2.9231929357E-11
    2.5918694302E-11    2.2984599477E-11    2.0385872332E-11    1.8083824892E-11
    1.6044262802E-11    1.4236962531E-11    1.2635208997E-11    1.1215386750E-11
    9.9566185999E-12    8.8404462705E-12    7.8505482573E-12    6.9724906038E-12
    6.1935067967E-12    5.5023034050E-12    4.8888884734E-12    4.3444200158E-12
    3.8610722634E-12    3.4319175874E-12    3.0508222580E-12    2.7123544156E-12
    2.4117028165E-12    2.1446050854E-12    1.9072843562E-12    1.6963933111E-12
    1.5089647472E-12    1.3423679025E-12    1.1942698618E-12    1.0626014466E-12
    9.4552706027E-13    8.4141802569E-13    7.4882900427E-13    6.6647713685E-13
    5.9322358735E-13    5.2805720886E-13    4.7008008485E-13    4.1849472723E-13
    3.7259273888E-13    3.3174477073E-13    2.9539162375E-13    2.6303636343E-13
    2.3423733024E-13    2.0860194269E-13    1.8578120220E-13    1.6546481924E-13
    1.4737688960E-13    1.3127205804E-13    1.1693211371E-13    1.0416296822E-13
    9.2791972867E-14    8.2665536631E-14    7.3647010740E-14    6.5614809825E-14
    5.8460742862E-14    5.2088530306E-14    4.6412486450E-14    4.1356348435E-14
    3.6852235483E-14    3.2839723726E-14    2.9265023722E-14    2.6080249163E-14
    2.3242766593E-14    2.0714617122E-14    1.8462002085E-14    1.6454825556E-14
    1.4666287385E-14    1.3072521146E-14    1.1652272017E-14    1.0386610166E-14
    9.2586757034E-15    8.2534517134E-15    7.3575622594E-15    6.5590925988E-15
    5.8474291585E-15    5.2131170900E-15    4.6477334636E-15    4.1437743812E-15
    3.6945544712E-15    3.2941174051E-15    2.9371562223E-15    2.6189423842E-15
    2.3352625982E-15    2.0823625596E-15    1.8568968493E-15    1.6558843140E-15
    1.4766683257E-15    1.3168813867E-15    1.1744136033E-15    1.0473846039E-15
    9.3411852490E-16    8.3312172812E-16    7.4306295091E-16    6.6275562267E-16
    5.9114211090E-16    5.2727968571E-16    4.7032801505E-16    4.1953802332E-16
    3.7424196434E-16    3.3384457624E-16    2.9781519994E-16    2.6568075614E-16
    2.3701948714E-16    2.1145537997E-16    1.8865319662E-16    1.6831404507E-16
    1.5017143224E-16    1.3398774624E-16    1.1955112129E-16    1.0667264341E-16
    9.5183859991E-17    8.4934559957E-17    7.5790795209E-17    6.7633116993E-17
    6.0355003844E-17    5.3861460255E-17    4.8067767506E-17    4.2898370075E-17
    3.8285882931E-17    3.4170206544E-17    3.0497737905E-17    2.7220667124E-17
    2.4296350324E-17    2.1686750515E-17    1.9357939084E-17    1.7279651322E-17
    1.5424890107E-17    1.3769572535E-17    1.2292214815E-17    1.0973651307E-17
    9.7967839654E-18    8.7463589157E-18    7.8087672131E-18    6.9718671605E-18
    6.2248258535E-18    5.5579778631E-18    4.9626992025E-18    4.4312949230E-18
    3.9568988614E-18    3.5333842237E-18    3.1552838331E-18    2.8177189920E-18
    2.5163360304E-18    2.2472497075E-18    2.0069927243E-18    1.7924706880E-18
    1.6009219357E-18    1.4298816950E-18    1.2771501110E-18    1.1407637232E-18
    1.0189700183E-18    9.1020472668E-19    8.1307156643E-19    7.2632417139E-19
    6.4884996651E-19    5.7965578054E-19    5.1785500821E-19    4.6265615538E-19
    4.1335261754E-19    3.6931355914E-19    3.2997577384E-19    2.9483642118E-19
    2.6344654463E-19    2.3540528699E-19    2.1035472777E-19    1.8797527562E-19
    1.6798155614E-19    1.5011874176E-19    1.3415927593E-19    1.1989994914E-19
    1.0715928909E-19    9.5775231102E-20    8.5603038819E-20    7.6513447763E-20
    6.8391008370E-20    6.1132606746E-20    5.4646144169E-20    4.8849358065E-20
    4.3668769522E-20    3.9038743622E-20    3.4900650489E-20    3.1202116181E-20
    2.7896353879E-20    2.4941566738E-20    2.2300414644E-20    1.9939538058E-20
    1.7829132842E-20    1.5942570618E-20    1.4256059685E-20    1.2748342234E-20
    1.1400423950E-20    1.0195332539E-20    9.1179020226E-21    8.1545801161E-21
    7.2932561983E-21    6.5231076330E-21    5.8344625107E-21    5.2186770510E-21
    4.6680261000E-21    4.1756052919E-21    3.7352436653E-21    3.3414256074E-21
    2.9892211080E-21    2.6742234560E-21    2.3924935823E-21    2.1405103322E-21
    1.9151260310E-21    1.7135267881E-21    1.5331970334E-21    1.3718878188E-21
    1.2275885004E-21    1.0985014382E-21    9.8301938006E-22    8.7970525505E-22
    7.8727411791E-22    7.0457701039E-22    6.3058653784E-22    5.6438398133E-22
    5.0514777770E-22    4.5214322189E-22    4.0471326516E-22    3.6227028988E-22
    3.2428875563E-22    2.9029862752E-22    2.5987950191E-22    2.3265535330E-22
    2.0828983993E-22    1.8648210720E-22    1.6696303438E-22    1.4949188027E-22
    1.3385328442E-22    1.1985458466E-22    1.0732341980E-22    9.6105586025E-23
    8.6063119370E-23    7.7072581858E-23    6.9023528841E-23    6.1817137891E-23
    5.5364983240E-23    4.9587939606E-23    4.4415201545E-23    3.9783406861E-23
    3.5635852363E-23    3.1921792309E-23    2.8595811261E-23    2.5617262828E-23
    2.2949767662E-23    2.0560764645E-23    1.8421109098E-23    1.6504713486E-23
    1.4788226121E-23    1.3250743457E-23    1.1873552892E-23    1.0639902633E-23
    9.5347956822E-24    8.5448056506E-24    7.6579118733E-24    6.8633518551E-24
    6.1514893337E-24    5.5136961033E-24    4.9422463193E-24    4.4302219382E-24
    3.9714280132E-24    3.5603169635E-24    3.1919207631E-24    2.8617902324E-24
    2.5659407521E-24    2.3008036189E-24    2.0631825331E-24    1.8502146578E-24
    1.6593357270E-24    1.4882488486E-24    1.3348965532E-24    1.1974357717E-24
    1.0742154544E-24    9.6375650301E-25    8.6473382774E-25    7.7596027295E-25
    6.9637221841E-25    6.2501670291E-25    5.6103987542E-25    5.0367666664E-25
    4.5224153669E-25    4.0612018389E-25    3.6476213037E-25    3.2767407054E-25
    2.9441392147E-25    2.6461839624E-25    2.3812634729E-25    2.1219634922E-25
    1.9054113114E-25    1.8472190232E-25    1.5575808639E-25    6.0763862850E-26
   -1.0161010202E-26   -8.2936576130E-27    3.4419910960E-27    8.2506112276E-28
   -1.9210503120E-28    1.7617823051E-28    1.5648434817E-28    1.3899714017E-28
    1.2346880686E-28    1.0967943632E-28    9.7433860030E-29    8.6558859932E-29
    7.6900698224E-29    6.8322918061E-29    6.0704399416E-29    5.3937630365E-29
    4.7927174853E-29    4.2588314297E-29    3.7845839774E-29    3.3632984126E-29
    2.9890470640E-29    2.6565672029E-29    2.3611862342E-29    2.0987553807E-29
    1.8655908709E-29    1.6584216342E-29    1.4743430547E-29    1.3107757398E-29
    1.1654290931E-29    1.0362688672E-29    9.2148843123E-30    8.1948324678E-30
    7.2882819615E-30    6.4825750357E-30    5.7664684534E-30    5.1299754451E-30
    4.5642246696E-30    4.0613355940E-30    3.6143074524E-30    3.2169208829E-30
    2.8636505238E-30    2.5495873527E-30    2.2703698849E-30    2.0221228485E-30
    1.8018544037E-30    1.6069309280E-30    1.4227525600E-30    1.2608840812E-30
    1.1872081426E-30    1.0752583623E-30    6.4233630906E-31    9.2422946163E-32
   -9.5260515564E-32   -9.6390927933E-33    2.0896431125E-32   -2.9346751899E-34
   -2.3696301564E-33    0.0000000000E+00    0.0000000000E+00    0.0000000000E+00
    0.0000000000E+00    0.0000000000E+00    0.0000000000E+00    0.0000000000E+00
    0.0000000000E+00    0.0000000000E+00    0.0000000000E+00    0.0000000000E+00
    0.0000000000E+00    0.0000000000E+00    0.0000000000E+00    0.0000000000E+00
    0.0000000000E+00    0.0000000000E+00    0.0000000000E+00    0.0000000000E+00
    0.0000000000E+00    0.0000000000E+00    0.0000000000E+00    0.0000000000E+00
    0.0000000000E+00    0.0000000000E+00    0.0000000000E+00    0.0000000000E+00
    0.0000000000E+00    0.0000000000E+00    0.0000000000E+00    0.0000000000E+00
    0.0000000000E+00    0.0000000000E+00    0.0000000000E+00    0.0000000000E+00
    0.0000000000E+00    0.0000000000E+00    0.0000000000E+00    0.0000000000E+00
    0.0000000000E+00    0.0000000000E+00    0.0000000000E+00    0.0000000000E+00
    0.0000000000E+00    0.0000000000E+00    0.0000000000E+00    0.0000000000E+00
    0.0000000000E+00    0.0000000000E+00    0.0000000000E+00    0.0000000000E+00
    0.0000000000E+00    0.0000000000E+00    0.0000000000E+00    0.0000000000E+00
    0.0000000000E+00    0.0000000000E+00    0.0000000000E+00    0.0000000000E+00
    0.0000000000E+00    0.0000000000E+00    0.0000000000E+00    0.0000000000E+00
    0.0000000000E+00    0.0000000000E+00    0.0000000000E+00    0.0000000000E+00
    0.0000000000E+00    0.0000000000E+00    0.0000000000E+00    0.0000000000E+00
    0.0000000000E+00    0.0000000000E+00    0.0000000000E+00    0.0000000000E+00
    0.0000000000E+00    0.0000000000E+00    0.0000000000E+00    0.0000000000E+00
    0.0000000000E+00    0.0000000000E+00    0.0000000000E+00    0.0000000000E+00
    0.0000000000E+00    0.0000000000E+00    0.0000000000E+00    0.0000000000E+00
    0.0000000000E+00    0.0000000000E+00    0.0000000000E+00    0.0000000000E+00
    0.0000000000E+00    0.0000000000E+00    0.0000000000E+00    0.0000000000E+00
    0.0000000000E+00    0.0000000000E+00    0.0000000000E+00    0.0000000000E+00
    0.0000000000E+00    0.0000000000E+00    0.0000000000E+00    0.0000000000E+00
    0.0000000000E+00    0.0000000000E+00    0.0000000000E+00    0.0000000000E+00
    0.0000000000E+00    0.0000000000E+00    0.0000000000E+00    0.0000000000E+00
    0.0000000000E+00    0.0000000000E+00    0.0000000000E+00    0.0000000000E+00
    0.0000000000E+00    0.0000000000E+00    0.0000000000E+00    0.0000000000E+00
    0.0000000000E+00    0.0000000000E+00    0.0000000000E+00    0.0000000000E+00
    0.0000000000E+00    0.0000000000E+00    0.0000000000E+00    0.0000000000E+00
    0.0000000000E+00    0.0000000000E+00    0.0000000000E+00    0.0000000000E+00
    0.0000000000E+00    0.0000000000E+00    0.0000000000E+00    0.0000000000E+00
    0.0000000000E+00    0.0000000000E+00    0.0000000000E+00    0.0000000000E+00
    0.0000000000E+00    0.0000000000E+00    0.0000000000E+00    0.0000000000E+00
    0.0000000000E+00    0.0000000000E+00    0.0000000000E+00    0.0000000000E+00
    0.0000000000E+00    0.0000000000E+00    0.0000000000E+00    0.0000000000E+00
    0.0000000000E+00    0.0000000000E+00    0.0000000000E+00    0.0000000000E+00
    0.0000000000E+00    0.0000000000E+00    0.0000000000E+00    0.0000000000E+00
    0.0000000000E+00    0.0000000000E+00    0.0000000000E+00    0.0000000000E+00
    0.0000000000E+00    0.0000000000E+00    0.0000000000E+00    0.0000000000E+00
    0.0000000000E+00    0.0000000000E+00    0.0000000000E+00    0.0000000000E+00
    0.0000000000E+00    0.0000000000E+00    0.0000000000E+00    0.0000000000E+00
    0.0000000000E+00    0.0000000000E+00    0.0000000000E+00    0.0000000000E+00
    0.0000000000E+00    0.0000000000E+00    0.0000000000E+00    0.0000000000E+00
    0.0000000000E+00    0.0000000000E+00    0.0000000000E+00    0.0000000000E+00
    0.0000000000E+00    0.0000000000E+00    0.0000000000E+00    0.0000000000E+00
    0.0000000000E+00    0.0000000000E+00    0.0000000000E+00    0.0000000000E+00
    0.0000000000E+00    0.0000000000E+00    0.0000000000E+00    0.0000000000E+00
    0.0000000000E+00    0.0000000000E+00    0.0000000000E+00    0.0000000000E+00
    0.0000000000E+00    0.0000000000E+00    0.0000000000E+00    0.0000000000E+00
    0.0000000000E+00    0.0000000000E+00    0.0000000000E+00    0.0000000000E+00
    0.0000000000E+00    0.0000000000E+00    0.0000000000E+00    0.0000000000E+00
    0.0000000000E+00    0.0000000000E+00    0.0000000000E+00    0.0000000000E+00
    0.0000000000E+00    0.0000000000E+00    0.0000000000E+00    0.0000000000E+00
    0.0000000000E+00    0.0000000000E+00    0.0000000000E+00    0.0000000000E+00
    0.0000000000E+00    0.0000000000E+00    0.0000000000E+00    0.0000000000E+00
    0.0000000000E+00    0.0000000000E+00    0.0000000000E+00    0.0000000000E+00
    0.0000000000E+00    0.0000000000E+00    0.0000000000E+00    0.0000000000E+00
    0.0000000000E+00    0.0000000000E+00    0.0000000000E+00    0.0000000000E+00
    0.0000000000E+00    0.0000000000E+00    0.0000000000E+00    0.0000000000E+00
    0.0000000000E+00    0.0000000000E+00    0.0000000000E+00    0.0000000000E+00
    0.0000000000E+00    0.0000000000E+00    0.0000000000E+00    0.0000000000E+00
    0.0000000000E+00    0.0000000000E+00    0.0000000000E+00    0.0000000000E+00
    0.0000000000E+00    0.0000000000E+00    0.0000000000E+00    0.0000000000E+00
    0.0000000000E+00    0.0000000000E+00    0.0000000000E+00    0.0000000000E+00
    0.0000000000E+00    0.0000000000E+00    0.0000000000E+00    0.0000000000E+00
    0.0000000000E+00    0.0000000000E+00    0.0000000000E+00    0.0000000000E+00
    0.0000000000E+00    0.0000000000E+00    0.0000000000E+00    0.0000000000E+00
    0.0000000000E+00    0.0000000000E+00    0.0000000000E+00    0.0000000000E+00
    0.0000000000E+00    0.0000000000E+00    0.0000000000E+00    0.0000000000E+00
    0.0000000000E+00    0.0000000000E+00    0.0000000000E+00    0.0000000000E+00
    0.0000000000E+00    0.0000000000E+00    0.0000000000E+00    0.0000000000E+00
    0.0000000000E+00    0.0000000000E+00    0.0000000000E+00    0.0000000000E+00
    0.0000000000E+00    0.0000000000E+00    0.0000000000E+00    0.0000000000E+00
    0.0000000000E+00    0.0000000000E+00    0.0000000000E+00    0.0000000000E+00
    0.0000000000E+00    0.0000000000E+00    0.0000000000E+00    0.0000000000E+00
    0.0000000000E+00    0.0000000000E+00    0.0000000000E+00    0.0000000000E+00
    0.0000000000E+00    0.0000000000E+00    0.0000000000E+00    0.0000000000E+00
    0.0000000000E+00    0.0000000000E+00    0.0000000000E+00    0.0000000000E+00
    0.0000000000E+00    0.0000000000E+00    0.0000000000E+00    0.0000000000E+00
    0.0000000000E+00    0.0000000000E+00    0.0000000000E+00    0.0000000000E+00
    0.0000000000E+00    0.0000000000E+00    0.0000000000E+00    0.0000000000E+00
    0.0000000000E+00    0.0000000000E+00    0.0000000000E+00    0.0000000000E+00
    0.0000000000E+00    0.0000000000E+00    0.0000000000E+00    0.0000000000E+00
    0.0000000000E+00    0.0000000000E+00    0.0000000000E+00    0.0000000000E+00
    0.0000000000E+00    0.0000000000E+00    0.0000000000E+00    0.0000000000E+00
    0.0000000000E+00    0.0000000000E+00    0.0000000000E+00    0.0000000000E+00
    0.0000000000E+00    0.0000000000E+00    0.0000000000E+00    0.0000000000E+00
    0.0000000000E+00    0.0000000000E+00    0.0000000000E+00    0.0000000000E+00
    0.0000000000E+00    0.0000000000E+00    0.0000000000E+00    0.0000000000E+00
    0.0000000000E+00    0.0000000000E+00    0.0000000000E+00    0.0000000000E+00
    0.0000000000E+00    0.0000000000E+00    0.0000000000E+00    0.0000000000E+00
    0.0000000000E+00    0.0000000000E+00    0.0000000000E+00    0.0000000000E+00
    0.0000000000E+00    0.0000000000E+00    0.0000000000E+00    0.0000000000E+00
    0.0000000000E+00    0.0000000000E+00    0.0000000000E+00    0.0000000000E+00
    0.0000000000E+00    0.0000000000E+00    0.0000000000E+00    0.0000000000E+00
    0.0000000000E+00    0.0000000000E+00    0.0000000000E+00    0.0000000000E+00
    0.0000000000E+00    0.0000000000E+00    0.0000000000E+00    0.0000000000E+00
    0.0000000000E+00    0.0000000000E+00    0.0000000000E+00    0.0000000000E+00
    0.0000000000E+00    0.0000000000E+00    0.0000000000E+00    0.0000000000E+00
    0.0000000000E+00    0.0000000000E+00    0.0000000000E+00    0.0000000000E+00
    0.0000000000E+00    0.0000000000E+00    0.0000000000E+00    0.0000000000E+00
    0.0000000000E+00    0.0000000000E+00    0.0000000000E+00    0.0000000000E+00
    0.0000000000E+00    0.0000000000E+00    0.0000000000E+00    0.0000000000E+00
    0.0000000000E+00    0.0000000000E+00    0.0000000000E+00    0.0000000000E+00
    0.0000000000E+00    0.0000000000E+00    0.0000000000E+00    0.0000000000E+00
    0.0000000000E+00    0.0000000000E+00    0.0000000000E+00    0.0000000000E+00
    0.0000000000E+00    0.0000000000E+00    0.0000000000E+00    0.0000000000E+00
    0.0000000000E+00    0.0000000000E+00    0.0000000000E+00    0.0000000000E+00
    0.0000000000E+00    0.0000000000E+00    0.0000000000E+00    0.0000000000E+00
    0.0000000000E+00    0.0000000000E+00    0.0000000000E+00    0.0000000000E+00
    0.0000000000E+00    0.0000000000E+00    0.0000000000E+00    0.0000000000E+00
    0.0000000000E+00    0.0000000000E+00    0.0000000000E+00    0.0000000000E+00
    0.0000000000E+00    0.0000000000E+00    0.0000000000E+00    0.0000000000E+00
    0.0000000000E+00    0.0000000000E+00    0.0000000000E+00    0.0000000000E+00
    0.0000000000E+00    0.0000000000E+00    0.0000000000E+00    0.0000000000E+00
    0.0000000000E+00    0.0000000000E+00    0.0000000000E+00    0.0000000000E+00
    0.0000000000E+00    0.0000000000E+00    0.0000000000E+00    0.0000000000E+00
    0.0000000000E+00    0.0000000000E+00    0.0000000000E+00    0.0000000000E+00
    0.0000000000E+00    0.0000000000E+00    0.0000000000E+00    0.0000000000E+00
    0.0000000000E+00    0.0000000000E+00    0.0000000000E+00    0.0000000000E+00
    0.0000000000E+00    0.0000000000E+00    0.0000000000E+00    0.0000000000E+00
    0.0000000000E+00    0.0000000000E+00    0.0000000000E+00    0.0000000000E+00
    0.0000000000E+00    0.0000000000E+00    0.0000000000E+00    0.0000000000E+00
    0.0000000000E+00    0.0000000000E+00    0.0000000000E+00    0.0000000000E+00
    0.0000000000E+00    0.0000000000E+00    0.0000000000E+00    0.0000000000E+00
    0.0000000000E+00    0.0000000000E+00    0.0000000000E+00    0.0000000000E+00
    0.0000000000E+00    0.0000000000E+00    0.0000000000E+00    0.0000000000E+00
    0.0000000000E+00    0.0000000000E+00    0.0000000000E+00    0.0000000000E+00
    0.0000000000E+00    0.0000000000E+00    0.0000000000E+00    0.0000000000E+00
    0.0000000000E+00    0.0000000000E+00    0.0000000000E+00    0.0000000000E+00
    0.0000000000E+00    0.0000000000E+00    0.0000000000E+00    0.0000000000E+00
    0.0000000000E+00    0.0000000000E+00    0.0000000000E+00    0.0000000000E+00
    0.0000000000E+00    0.0000000000E+00    0.0000000000E+00    0.0000000000E+00
    0.0000000000E+00    0.0000000000E+00    0.0000000000E+00    0.0000000000E+00
    0.0000000000E+00    0.0000000000E+00    0.0000000000E+00    0.0000000000E+00
    0.0000000000E+00    0.0000000000E+00    0.0000000000E+00    0.0000000000E+00
    0.0000000000E+00    0.0000000000E+00    0.0000000000E+00    0.0000000000E+00
    0.0000000000E+00    0.0000000000E+00    0.0000000000E+00    0.0000000000E+00
    0.0000000000E+00    0.0000000000E+00    0.0000000000E+00    0.0000000000E+00
    0.0000000000E+00    0.0000000000E+00    0.0000000000E+00    0.0000000000E+00
    0.0000000000E+00    0.0000000000E+00    0.0000000000E+00    0.0000000000E+00
    0.0000000000E+00    0.0000000000E+00    0.0000000000E+00    0.0000000000E+00
    0.0000000000E+00    0.0000000000E+00    0.0000000000E+00    0.0000000000E+00
    0.0000000000E+00    0.0000000000E+00    0.0000000000E+00    0.0000000000E+00
    0.0000000000E+00    0.0000000000E+00    0.0000000000E+00    0.0000000000E+00
    0.0000000000E+00    0.0000000000E+00    0.0000000000E+00    0.0000000000E+00
    0.0000000000E+00    0.0000000000E+00    0.0000000000E+00    0.0000000000E+00
    0.0000000000E+00    0.0000000000E+00    0.0000000000E+00    0.0000000000E+00
    0.0000000000E+00    0.0000000000E+00    0.0000000000E+00    0.0000000000E+00
    0.0000000000E+00    0.0000000000E+00    0.0000000000E+00    0.0000000000E+00
    0.0000000000E+00    0.0000000000E+00    0.0000000000E+00    0.0000000000E+00
    0.0000000000E+00    0.0000000000E+00    0.0000000000E+00    0.0000000000E+00
    0.0000000000E+00    0.0000000000E+00    0.0000000000E+00    0.0000000000E+00
    0.0000000000E+00    0.0000000000E+00    0.0000000000E+00    0.0000000000E+00
    0.0000000000E+00    0.0000000000E+00    0.0000000000E+00    0.0000000000E+00
    0.0000000000E+00    0.0000000000E+00    0.0000000000E+00    0.0000000000E+00
    0.0000000000E+00    0.0000000000E+00    0.0000000000E+00    0.0000000000E+00
    0.0000000000E+00    0.0000000000E+00    0.0000000000E+00    0.0000000000E+00
    0.0000000000E+00    0.0000000000E+00    0.0000000000E+00    0.0000000000E+00
    0.0000000000E+00    0.0000000000E+00    0.0000000000E+00    0.0000000000E+00
    0.0000000000E+00    0.0000000000E+00    0.0000000000E+00    0.0000000000E+00
    0.0000000000E+00    0.0000000000E+00    0.0000000000E+00    0.0000000000E+00
    0.0000000000E+00    0.0000000000E+00    0.0000000000E+00    0.0000000000E+00
    0.0000000000E+00    0.0000000000E+00    0.0000000000E+00    0.0000000000E+00
    0.0000000000E+00    0.0000000000E+00    0.0000000000E+00    0.0000000000E+00
    0.0000000000E+00    0.0000000000E+00    0.0000000000E+00    0.0000000000E+00
    0.0000000000E+00    0.0000000000E+00    0.0000000000E+00    0.0000000000E+00
    0.0000000000E+00    0.0000000000E+00    0.0000000000E+00    0.0000000000E+00
    0.0000000000E+00    0.0000000000E+00    0.0000000000E+00    0.0000000000E+00
    0.0000000000E+00    0.0000000000E+00    0.0000000000E+00    0.0000000000E+00
    0.0000000000E+00    0.0000000000E+00    0.0000000000E+00    0.0000000000E+00
    0.0000000000E+00    0.0000000000E+00    0.0000000000E+00    0.0000000000E+00
    0.0000000000E+00    0.0000000000E+00    0.0000000000E+00    0.0000000000E+00
    0.0000000000E+00    0.0000000000E+00    0.0000000000E+00    0.0000000000E+00
    0.0000000000E+00    0.0000000000E+00    0.0000000000E+00    0.0000000000E+00
    0.0000000000E+00    0.0000000000E+00    0.0000000000E+00    0.0000000000E+00
    0.0000000000E+00    0.0000000000E+00    0.0000000000E+00    0.0000000000E+00
    0.0000000000E+00    0.0000000000E+00    0.0000000000E+00    0.0000000000E+00
    0.0000000000E+00    0.0000000000E+00    0.0000000000E+00    0.0000000000E+00
    0.0000000000E+00    0.0000000000E+00    0.0000000000E+00    0.0000000000E+00
    0.0000000000E+00    0.0000000000E+00    0.0000000000E+00    0.0000000000E+00
    0.0000000000E+00    0.0000000000E+00    0.0000000000E+00    0.0000000000E+00
    0.0000000000E+00    0.0000000000E+00    0.0000000000E+00    0.0000000000E+00
    0.0000000000E+00    0.0000000000E+00    0.0000000000E+00    0.0000000000E+00
    0.0000000000E+00    0.0000000000E+00    0.0000000000E+00    0.0000000000E+00
    0.0000000000E+00    0.0000000000E+00    0.0000000000E+00    0.0000000000E+00
    0.0000000000E+00    0.0000000000E+00    0.0000000000E+00    0.0000000000E+00
    0.0000000000E+00    0.0000000000E+00    0.0000000000E+00    0.0000000000E+00
    0.0000000000E+00    0.0000000000E+00    0.0000000000E+00    0.0000000000E+00
    0.0000000000E+00    0.0000000000E+00    0.0000000000E+00    0.0000000000E+00
    0.0000000000E+00    0.0000000000E+00    0.0000000000E+00    0.0000000000E+00
    0.0000000000E+00    0.0000000000E+00    0.0000000000E+00    0.0000000000E+00
    0.0000000000E+00    0.0000000000E+00    0.0000000000E+00    0.0000000000E+00
    0.0000000000E+00    0.0000000000E+00    0.0000000000E+00    0.0000000000E+00
    0.0000000000E+00    0.0000000000E+00    0.0000000000E+00    0.0000000000E+00
    0.0000000000E+00    0.0000000000E+00    0.0000000000E+00    0.0000000000E+00
    0.0000000000E+00    0.0000000000E+00    0.0000000000E+00    0.0000000000E+00
    0.0000000000E+00    0.0000000000E+00    0.0000000000E+00    0.0000000000E+00
    0.0000000000E+00    0.0000000000E+00    0.0000000000E+00    0.0000000000E+00
    0.0000000000E+00    0.0000000000E+00    0.0000000000E+00    0.0000000000E+00
    0.0000000000E+00    0.0000000000E+00    0.0000000000E+00    0.0000000000E+00
    0.0000000000E+00    0.0000000000E+00    0.0000000000E+00    0.0000000000E+00
    0.0000000000E+00    0.0000000000E+00    0.0000000000E+00    0.0000000000E+00
    0.0000000000E+00    0.0000000000E+00    0.0000000000E+00    0.0000000000E+00
    0.0000000000E+00    0.0000000000E+00    0.0000000000E+00    0.0000000000E+00
    0.0000000000E+00    0.0000000000E+00    0.0000000000E+00    0.0000000000E+00
    0.0000000000E+00    0.0000000000E+00    0.0000000000E+00    0.0000000000E+00
    0.0000000000E+00    0.0000000000E+00    0.0000000000E+00    0.0000000000E+00
    0.0000000000E+00    0.0000000000E+00    0.0000000000E+00    0.0000000000E+00
    0.0000000000E+00    0.0000000000E+00    0.0000000000E+00    0.0000000000E+00
    0.0000000000E+00    0.0000000000E+00    0.0000000000E+00    0.0000000000E+00
    0.0000000000E+00    0.0000000000E+00    0.0000000000E+00    0.0000000000E+00
    0.0000000000E+00    0.0000000000E+00    0.0000000000E+00    0.0000000000E+00
    0.0000000000E+00    0.0000000000E+00    0.0000000000E+00    0.0000000000E+00
    0.0000000000E+00    0.0000000000E+00    0.0000000000E+00    0.0000000000E+00
    0.0000000000E+00    0.0000000000E+00    0.0000000000E+00    0.0000000000E+00
    0.0000000000E+00    0.0000000000E+00    0.0000000000E+00    0.0000000000E+00
    0.0000000000E+00    0.0000000000E+00    0.0000000000E+00    0.0000000000E+00
    0.0000000000E+00    0.0000000000E+00    0.0000000000E+00    0.0000000000E+00
    0.0000000000E+00    0.0000000000E+00    0.0000000000E+00    0.0000000000E+00
    0.0000000000E+00    0.0000000000E+00    0.0000000000E+00    0.0000000000E+00
    0.0000000000E+00    0.0000000000E+00    0.0000000000E+00    0.0000000000E+00
    0.0000000000E+00    0.0000000000E+00    0.0000000000E+00    0.0000000000E+00
    0.0000000000E+00    0.0000000000E+00    0.0000000000E+00    0.0000000000E+00
    0.0000000000E+00    0.0000000000E+00    0.0000000000E+00    0.0000000000E+00
    0.0000000000E+00    0.0000000000E+00    0.0000000000E+00    0.0000000000E+00
    0.0000000000E+00    0.0000000000E+00    0.0000000000E+00    0.0000000000E+00
    0.0000000000E+00    0.0000000000E+00    0.0000000000E+00    0.0000000000E+00
    0.0000000000E+00    0.0000000000E+00    0.0000000000E+00    0.0000000000E+00
    0.0000000000E+00    0.0000000000E+00
 </PP_TAUMOD>
 <PP_TAUATOM type="real"  size="1554" columns="4">
    8.6552529085E+00    8.6540183359E+00    8.6503081319E+00    8.6441029251E+00
    8.6353707135E+00    8.6240672859E+00    8.6101368085E+00    8.5935125735E+00
    8.5741179025E+00    8.5518671998E+00    8.5266671479E+00    8.4984180340E+00
    8.4670152006E+00    8.4323506032E+00    8.3943144668E+00    8.3527970213E+00
    8.3076903021E+00    8.2588899972E+00    8.2062973210E+00    8.1498208940E+00
    8.0893786087E+00    8.0248994567E+00    7.9563252970E+00    7.8836125405E+00
    7.8067337290E+00    7.7256789853E+00    7.6404573141E+00    7.5510977316E+00
    7.4576502066E+00    7.3601863948E+00    7.2588001519E+00    7.1536078134E+00
    7.0447482319E+00    6.9323825655E+00    6.8166938136E+00    6.6978861020E+00
    6.5761837203E+00    6.4518299193E+00    6.3250854794E+00    6.1962270657E+00
    6.0655453855E+00    5.9333431705E+00    5.7999330073E+00    5.6656350405E+00
    5.5307745787E+00    5.3956796301E+00    5.2606784013E+00    5.1260967867E+00
    4.9922558835E+00    4.8594695603E+00    4.7280421096E+00    4.5982660142E+00
    4.4704198514E+00    4.3447663614E+00    4.2215506996E+00    4.1009988930E+00
    3.9833165141E+00    3.8686875857E+00    3.7572737230E+00    3.6492135196E+00
    3.5446221757E+00    3.4435913684E+00    3.3461893559E+00    3.2524613082E+00
    3.1624298500E+00    3.0760958033E+00    2.9934391110E+00    2.9144199236E+00
    2.8389798284E+00    2.7670431999E+00    2.6985186497E+00    2.6333005535E+00
    2.5712706361E+00    2.5122995908E+00    2.4562487079E+00    2.4029714985E+00
    2.3523152937E+00    2.3041228033E+00    2.2582336199E+00    2.2144856543E+00
    2.1727164919E+00    2.1327646627E+00    2.0944708157E+00    2.0576787951E+00
    2.0222366126E+00    1.9879973170E+00    1.9548197584E+00    1.9225692493E+00
    1.8911181252E+00    1.8603462052E+00    1.8301411590E+00    1.8003987854E+00
    1.7710232071E+00    1.7419269878E+00    1.7130311772E+00    1.6842652908E+00
    1.6555672297E+00    1.6268831464E+00    1.5981672626E+00    1.5693816445E+00
    1.5404959403E+00    1.5114870839E+00    1.4823389710E+00    1.4530421099E+00
    1.4235932507E+00    1.3939949978E+00    1.3642554064E+00    1.3343875672E+00
    1.3044091822E+00    1.2743421325E+00    1.2442120418E+00    1.2140478375E+00
    1.1838813104E+00    1.1537466782E+00    1.1236801509E+00    1.0937195039E+00
    1.0639036599E+00    1.0342722805E+00    1.0048653723E+00    9.7572290802E-01
    9.4688446592E-01    9.1838888875E-01    8.9027396546E-01    8.6257613682E-01
    8.3533022710E-01    8.0856920304E-01    7.8232396168E-01    7.5662314771E-01
    7.3149300115E-01    7.0695723581E-01    6.8303694767E-01    6.5974870754E-01
    6.3709845575E-01    6.1508797860E-01    5.9371732509E-01    5.7298490793E-01
    5.5288710004E-01    5.3341537417E-01    5.1455872397E-01    4.9630546597E-01
    4.7864335597E-01    4.6155965380E-01    4.4504122673E-01    4.2907462226E-01
    4.1364614062E-01    3.9874190088E-01    3.8434790130E-01    3.7045007395E-01
    3.5703433410E-01    3.4408662449E-01    3.3159295492E-01    3.1953943739E-01
    3.0791231727E-01    2.9669800074E-01    2.8588307899E-01    2.7545434939E-01
    2.6539883415E-01    2.5570379675E-01    2.4635675645E-01    2.3734550119E-01
    2.2865809935E-01    2.2028291028E-01    2.1220859420E-01    2.0442412141E-01
    1.9691878090E-01    1.8968218885E-01    1.8270437877E-01    1.7597636602E-01
    1.6948976027E-01    1.6323638940E-01    1.5720830689E-01    1.5139779627E-01
    1.4579737494E-01    1.4039979688E-01    1.3519805397E-01    1.3018537575E-01
    1.2535522754E-01    1.2070130664E-01    1.1621753695E-01    1.1189806173E-01
    1.0773723503E-01    1.0372961172E-01    9.9869936702E-02    9.6153133469E-02
    9.2574292459E-02    8.9128659552E-02    8.5811625037E-02    8.2618713361E-02
    7.9545573916E-02    7.6587973082E-02    7.3741787680E-02    7.1002999955E-02
    6.8367694157E-02    6.5832054726E-02    6.3392366045E-02    6.1045013651E-02
    5.8786486718E-02    5.6613381558E-02    5.4522405777E-02    5.2510382659E-02
    5.0574255231E-02    4.8711090161E-02    4.6918077618E-02    4.5192573690E-02
    4.3532110017E-02    4.1934310397E-02    4.0396875341E-02    3.8917581037E-02
    3.7494277634E-02    3.6124887519E-02    3.4807403574E-02    3.3539887398E-02
    3.2320467524E-02    3.1147337621E-02    3.0018754706E-02    2.8933037341E-02
    2.7888563861E-02    2.6883770598E-02    2.5917150134E-02    2.4987249572E-02
    2.4092668831E-02    2.3232058971E-02    2.2404120546E-02    2.1607601989E-02
    2.0841298032E-02    2.0104048158E-02    1.9394735095E-02    1.8712283337E-02
    1.8055657711E-02    1.7423861976E-02    1.6815937464E-02    1.6230961757E-02
    1.5668047400E-02    1.5126340655E-02    1.4605020289E-02    1.4103296404E-02
    1.3620409296E-02    1.3155628359E-02    1.2708251129E-02    1.2277601625E-02
    1.1863035013E-02    1.1463939515E-02    1.1079727323E-02    1.0709831563E-02
    1.0353705742E-02    1.0010823250E-02    9.6806769754E-03    9.3627789871E-03
    9.0566602422E-03    8.7618702895E-03    8.4779769387E-03    8.2045658757E-03
    7.9412402095E-03    7.6876199456E-03    7.4433413847E-03    7.2080564512E-03
    6.9814319619E-03    6.7631488469E-03    6.5529013396E-03    6.3503961520E-03
    6.1553516534E-03    5.9674970702E-03    5.7865717205E-03    5.6123243001E-03
    5.4445122268E-03    5.2829010534E-03    5.1272639513E-03    4.9773812675E-03
    4.8330401508E-03    4.6940342442E-03    4.5601634371E-03    4.4312336686E-03
    4.3070567739E-03    4.1874503658E-03    4.0722377418E-03    3.9612478097E-03
    3.8543150247E-03    3.7512793315E-03    3.6519861076E-03    3.5562861030E-03
    3.4640353734E-03    3.3750952068E-03    3.2893320398E-03    3.2066173654E-03
    3.1268276307E-03    3.0498441269E-03    2.9755528702E-03    2.9038444768E-03
    2.8346140309E-03    2.7677609492E-03    2.7031888409E-03    2.6408053664E-03
    2.5805220935E-03    2.5222543542E-03    2.4659211018E-03    2.4114447693E-03
    2.3587511294E-03    2.3077691582E-03    2.2584309005E-03    2.2106713398E-03
    2.1644282713E-03    2.1196421793E-03    2.0762561180E-03    2.0342155980E-03
    1.9934684753E-03    1.9539648462E-03    1.9156569455E-03    1.8784990496E-03
    1.8424473833E-03    1.8074600311E-03    1.7734968522E-03    1.7405193995E-03
    1.7084908427E-03    1.6773758942E-03    1.6471407392E-03    1.6177529691E-03
    1.5891815173E-03    1.5613965995E-03    1.5343696551E-03    1.5080732934E-03
    1.4824812405E-03    1.4575682903E-03    1.4333102567E-03    1.4096839291E-03
    1.3866670293E-03    1.3642381710E-03    1.3423768206E-03    1.3210632607E-03
    1.3002785546E-03    1.2800045128E-03    1.2602236614E-03    1.2409192112E-03
    1.2220750289E-03    1.2036756095E-03    1.1857060499E-03    1.1681520235E-03
    1.1509997563E-03    1.1342360042E-03    1.1178480306E-03    1.1018235861E-03
    1.0861508879E-03    1.0708186013E-03    1.0558158211E-03    1.0411320540E-03
    1.0267572025E-03    1.0126815484E-03    9.9889573781E-04    9.8539076649E-04
    9.7215796588E-04    9.5918898970E-04    9.4647580115E-04    9.3401066067E-04
    9.2178611413E-04    9.0979498162E-04    8.9803034664E-04    8.8648554577E-04
    8.7515415872E-04    8.6402999888E-04    8.5310710418E-04    8.4237972831E-04
    8.3184233242E-04    8.2148957701E-04    8.1131631423E-04    8.0131758048E-04
    7.9148858930E-04    7.8182472455E-04    7.7232153387E-04    7.6297472235E-04
    7.5378014656E-04    7.4473380872E-04    7.3583185109E-04    7.2707055073E-04
    7.1844631424E-04    7.0995567293E-04    7.0159527803E-04    6.9336189613E-04
    6.8525240483E-04    6.7726378854E-04    6.6939313440E-04    6.6163762844E-04
    6.5399455185E-04    6.4646127735E-04    6.3903526578E-04    6.3171406277E-04
    6.2449529559E-04    6.1737667001E-04    6.1035596746E-04    6.0343104209E-04
    5.9659981814E-04    5.8986028728E-04    5.8321050609E-04    5.7664859365E-04
    5.7017272922E-04    5.6378114999E-04    5.5747214895E-04    5.5124407279E-04
    5.4509531991E-04    5.3902433856E-04    5.3302962492E-04    5.2710972140E-04
    5.2126321487E-04    5.1548873510E-04    5.0978495310E-04    5.0415057967E-04
    4.9858436392E-04    4.9308509184E-04    4.8765158501E-04    4.8228269925E-04
    4.7697732337E-04    4.7173437803E-04    4.6655281452E-04    4.6143161366E-04
    4.5636978477E-04    4.5136636459E-04    4.4642041634E-04    4.4153102870E-04
    4.3669731499E-04    4.3191841219E-04    4.2719348016E-04    4.2252170080E-04
    4.1790227725E-04    4.1333443317E-04    4.0881741199E-04    4.0435047622E-04
    3.9993290677E-04    3.9556400230E-04    3.9124307862E-04    3.8696946806E-04
    3.8274251893E-04    3.7856159494E-04    3.7442607465E-04    3.7033535101E-04
    3.6628883082E-04    3.6228593427E-04    3.5832609450E-04    3.5440875712E-04
    3.5053337983E-04    3.4669943198E-04    3.4290639422E-04    3.3915375806E-04
    3.3544102555E-04    3.3176770896E-04    3.2813333036E-04    3.2453742138E-04
    3.2097952285E-04    3.1745918451E-04    3.1397596475E-04    3.1052943029E-04
    3.0711915595E-04    3.0374472436E-04    3.0040572575E-04    2.9710175768E-04
    2.9383242485E-04    2.9059733884E-04    2.8739611790E-04    2.8422838679E-04
    2.8109377653E-04    2.7799192426E-04    2.7492247303E-04    2.7188507160E-04
    2.6887937436E-04    2.6590504106E-04    2.6296173672E-04    2.6004913150E-04
    2.5716690060E-04    2.5431472294E-04    2.5149228589E-04    2.4869928089E-04
    2.4593539381E-04    2.4320032344E-04    2.4049377550E-04    2.3781545521E-04
    2.3516507278E-04    2.3254234236E-04    2.2994698179E-04    2.2737871263E-04
    2.2483726001E-04    2.2232235261E-04    2.1983372249E-04    2.1737110508E-04
    2.1493423907E-04    2.1252286632E-04    2.1013673183E-04    2.0777558363E-04
    2.0543917271E-04    2.0312725300E-04    2.0083958125E-04    1.9857591701E-04
    1.9633602255E-04    1.9411966281E-04    1.9192660536E-04    1.8975662031E-04
    1.8760948029E-04    1.8548496040E-04    1.8338283814E-04    1.8130289340E-04
    1.7924490837E-04    1.7720866753E-04    1.7519395762E-04    1.7320056756E-04
    1.7122828844E-04    1.6927691347E-04    1.6734623796E-04    1.6543605927E-04
    1.6354617678E-04    1.6167639185E-04    1.5982650781E-04    1.5799632992E-04
    1.5618566533E-04    1.5439432305E-04    1.5262211395E-04    1.5086885069E-04
    1.4913434775E-04    1.4741842135E-04    1.4572088946E-04    1.4404157175E-04
    1.4238028960E-04    1.4073686605E-04    1.3911112580E-04    1.3750289516E-04
    1.3591200206E-04    1.3433827601E-04    1.3278154810E-04    1.3124165095E-04
    1.2971841873E-04    1.2821168710E-04    1.2672129325E-04    1.2524707582E-04
    1.2378887492E-04    1.2234653211E-04    1.2091989038E-04    1.1950879413E-04
    1.1811308918E-04    1.1673262271E-04    1.1536724329E-04    1.1401680084E-04
    1.1268114663E-04    1.1136013326E-04    1.1005361465E-04    1.0876144602E-04
    1.0748348389E-04    1.0621958605E-04    1.0496961158E-04    1.0373342080E-04
    1.0251087529E-04    1.0130183785E-04    1.0010617250E-04    9.8923744507E-05
    9.7754420301E-05    9.6598067526E-05    9.5454555000E-05    9.4323752717E-05
    9.3205531827E-05    9.2099764637E-05    9.1006324593E-05    8.9925086274E-05
    8.8855925382E-05    8.7798718735E-05    8.6753344253E-05    8.5719680953E-05
    8.4697608939E-05    8.3687009394E-05    8.2687764568E-05    8.1699757775E-05
    8.0722873379E-05    7.9756996791E-05    7.8802014456E-05    7.7857813846E-05
    7.6924283455E-05    7.6001312789E-05    7.5088792355E-05    7.4186613658E-05
    7.3294669193E-05    7.2412852432E-05    7.1541057824E-05    7.0679180781E-05
    6.9827117674E-05    6.8984765825E-05    6.8152023499E-05    6.7328789899E-05
    6.6514965154E-05    6.5710450318E-05    6.4915147358E-05    6.4128959150E-05
    6.3351789469E-05    6.2583542987E-05    6.1824125262E-05    6.1073442729E-05
    6.0331402702E-05    5.9597913359E-05    5.8872883737E-05    5.8156223730E-05
    5.7447844075E-05    5.6747656354E-05    5.6055572979E-05    5.5371507192E-05
    5.4695373055E-05    5.4027085445E-05    5.3366560048E-05    5.2713713353E-05
    5.2068462641E-05    5.1430725989E-05    5.0800422251E-05    5.0177471064E-05
    4.9561792834E-05    4.8953308731E-05    4.8351940686E-05    4.7757611384E-05
    4.7170244256E-05    4.6589763474E-05    4.6016093947E-05    4.5449161313E-05
    4.4888891933E-05    4.4335212889E-05    4.3788051972E-05    4.3247337681E-05
    4.2712999217E-05    4.2184966475E-05    4.1663170039E-05    4.1147541179E-05
    4.0638011842E-05    4.0134514649E-05    3.9636982888E-05    3.9145350509E-05
    3.8659552119E-05    3.8179522976E-05    3.7705198983E-05    3.7236516684E-05
    3.6773413260E-05    3.6315826518E-05    3.5863694894E-05    3.5416957439E-05
    3.4975553823E-05    3.4539424320E-05    3.4108509812E-05    3.3682751777E-05
    3.3262092289E-05    3.2846474008E-05    3.2435840181E-05    3.2030134631E-05
    3.1629301756E-05    3.1233286522E-05    3.0842034459E-05    3.0455491656E-05
    3.0073604758E-05    2.9696320956E-05    2.9323587989E-05    2.8955354132E-05
    2.8591568200E-05    2.8232179533E-05    2.7877138001E-05    2.7526393994E-05
    2.7179898416E-05    2.6837602687E-05    2.6499458731E-05    2.6165418976E-05
    2.5835436349E-05    2.5509464270E-05    2.5187456648E-05    2.4869367879E-05
    2.4555152837E-05    2.4244766875E-05    2.3938165816E-05    2.3635305951E-05
    2.3336144035E-05    2.3040637281E-05    2.2748743359E-05    2.2460420388E-05
    2.2175626934E-05    2.1894322006E-05    2.1616465050E-05    2.1342015949E-05
    2.1070935013E-05    2.0803182982E-05    2.0538721014E-05    2.0277510689E-05
    2.0019513999E-05    1.9764693348E-05    1.9513011546E-05    1.9264431806E-05
    1.9018917739E-05    1.8776433352E-05    1.8536943045E-05    1.8300411602E-05
    1.8066804193E-05    1.7836086370E-05    1.7608224059E-05    1.7383183559E-05
    1.7160931539E-05    1.6941435036E-05    1.6724661445E-05    1.6510578524E-05
    1.6299154383E-05    1.6090357485E-05    1.5884156642E-05    1.5680521010E-05
    1.5479420086E-05    1.5280823708E-05    1.5084702045E-05    1.4891025601E-05
    1.4699765205E-05    1.4510892013E-05    1.4324377504E-05    1.4140193471E-05
    1.3958312028E-05    1.3778705597E-05    1.3601346910E-05    1.3426209008E-05
    1.3253265230E-05    1.3082489218E-05    1.2913854911E-05    1.2747336539E-05
    1.2582908627E-05    1.2420545984E-05    1.2260223706E-05    1.2101917171E-05
    1.1945602035E-05    1.1791254231E-05    1.1638849967E-05    1.1488365718E-05
    1.1339778230E-05    1.1193064514E-05    1.1048201841E-05    1.0905167744E-05
    1.0763940012E-05    1.0624496688E-05    1.0486816068E-05    1.0350876694E-05
    1.0216657359E-05    1.0084137095E-05    9.9532951797E-06    9.8241111261E-06
    9.6965646853E-06    9.5706358416E-06    9.4463048106E-06    9.3235520371E-06
    9.2023581918E-06    9.0827041699E-06    8.9645710880E-06    8.8479402821E-06
    8.7327933052E-06    8.6191119249E-06    8.5068781211E-06    8.3960740839E-06
    8.2866822112E-06    8.1786851065E-06    8.0720655767E-06    7.9668066300E-06
    7.8628914736E-06    7.7603035114E-06    7.6590263424E-06    7.5590437580E-06
    7.4603397403E-06    7.3628984599E-06    7.2667042738E-06    7.1717417235E-06
    7.0779955328E-06    6.9854506060E-06    6.8940920258E-06    6.8039050515E-06
    6.7148751168E-06    6.6269878282E-06    6.5402289627E-06    6.4545844666E-06
    6.3700404527E-06    6.2865831994E-06    6.2041991481E-06    6.1228749018E-06
    6.0425972235E-06    5.9633530338E-06    5.8851294097E-06    5.8079135827E-06
    5.7316929369E-06    5.6564550077E-06    5.5821874794E-06    5.5088781846E-06
    5.4365151015E-06    5.3650863528E-06    5.2945802040E-06    5.2249850618E-06
    5.1562894724E-06    5.0884821202E-06    5.0215518259E-06    4.9554875451E-06
    4.8902783669E-06    4.8259135121E-06    4.7623823322E-06    4.6996743072E-06
    4.6377790450E-06    4.5766862791E-06    4.5163858677E-06    4.4568677923E-06
    4.3981221558E-06    4.3401391819E-06    4.2829092128E-06    4.2264227086E-06
    4.1706702456E-06    4.1156425150E-06    4.0613303215E-06    4.0077245824E-06
    3.9548163257E-06    3.9025966893E-06    3.8510569196E-06    3.8001883699E-06
    3.7499824999E-06    3.7004308737E-06    3.6515251591E-06    3.6032571264E-06
    3.5556186466E-06    3.5086016910E-06    3.4621983297E-06    3.4164007303E-06
    3.3712011570E-06    3.3265919694E-06    3.2825656214E-06    3.2391146601E-06
    3.1962317245E-06    3.1539095448E-06    3.1121409411E-06    3.0709188224E-06
    3.0302361854E-06    2.9900861137E-06    2.9504617769E-06    2.9113564290E-06
    2.8727634081E-06    2.8346761347E-06    2.7970881117E-06    2.7599929222E-06
    2.7233842296E-06    2.6872557762E-06    2.6516013821E-06    2.6164149447E-06
    2.5816904375E-06    2.5474219092E-06    2.5136034828E-06    2.4802293550E-06
    2.4472937950E-06    2.4147911436E-06    2.3827158126E-06    2.3510622839E-06
    2.3198251084E-06    2.2889989056E-06    2.2585783625E-06    2.2285582325E-06
    2.1989333355E-06    2.1696985560E-06    2.1408488432E-06    2.1123792099E-06
    2.0842847315E-06    2.0565605456E-06    2.0292018511E-06    2.0022039074E-06
    1.9755620340E-06    1.9492716091E-06    1.9233280697E-06    1.8977269103E-06
    1.8724636825E-06    1.8475339939E-06    1.8229335082E-06    1.7986579437E-06
    1.7747030731E-06    1.7510647228E-06    1.7277387719E-06    1.7047211521E-06
    1.6820078467E-06    1.6595948899E-06    1.6374783666E-06    1.6156544113E-06
    1.5941192077E-06    1.5728689883E-06    1.5519000333E-06    1.5312086707E-06
    1.5107912750E-06    1.4906442670E-06    1.4707641135E-06    1.4511473259E-06
    1.4317904608E-06    1.4126901182E-06    1.3938429421E-06    1.3752456191E-06
    1.3568948783E-06    1.3387874910E-06    1.3209202693E-06    1.3032900666E-06
    1.2858937766E-06    1.2687283327E-06    1.2517907077E-06    1.2350779135E-06
    1.2185870001E-06    1.2023150555E-06    1.1862592053E-06    1.1704166119E-06
    1.1547844743E-06    1.1393600275E-06    1.1241405423E-06    1.1091233244E-06
    1.0943057144E-06    1.0796850872E-06    1.0652588515E-06    1.0510244496E-06
    1.0369793566E-06    1.0231210804E-06    1.0094471610E-06    9.9595517027E-07
    9.8264271149E-07    9.6950741891E-07    9.5654695742E-07    9.4375902215E-07
    9.3114133808E-07    9.1869165969E-07    9.0640777054E-07    8.9428748298E-07
    8.8232863770E-07    8.7052910344E-07    8.5888677660E-07    8.4739958091E-07
    8.3606546708E-07    8.2488241244E-07    8.1384842064E-07    8.0296152128E-07
    7.9221976961E-07    7.8162124619E-07    7.7116405657E-07    7.6084633098E-07
    7.5066622402E-07    7.4062191433E-07    7.3071160429E-07    7.2093351977E-07
    7.1128590974E-07    7.0176704604E-07    6.9237522310E-07    6.8310875758E-07
    6.7396598817E-07    6.6494527526E-07    6.5604500066E-07    6.4726356737E-07
    6.3859939925E-07    6.3005094081E-07    6.2161665692E-07    6.1329503252E-07
    6.0508457244E-07    5.9698380106E-07    5.8899126212E-07    5.8110551844E-07
    5.7332515170E-07    5.6564876218E-07    5.5807496850E-07    5.5060240746E-07
    5.4322973372E-07    5.3595561961E-07    5.2877875491E-07    5.2169784662E-07
    5.1471161872E-07    5.0781881199E-07    5.0101818374E-07    4.9430850764E-07
    4.8768857351E-07    4.8115718706E-07    4.7471316977E-07    4.6835535861E-07
    4.6208260586E-07    4.5589377895E-07    4.4978776022E-07    4.4376344673E-07
    4.3781975011E-07    4.3195559632E-07    4.2616992551E-07    4.2046169179E-07
    4.1482986308E-07    4.0927342095E-07    4.0379136038E-07    3.9838268964E-07
    3.9304643012E-07    3.8778161611E-07    3.8258729467E-07    3.7746252548E-07
    3.7240638062E-07    3.6741794447E-07    3.6249631352E-07    3.5764059618E-07
    3.5284991270E-07    3.4812339496E-07    3.4346018634E-07    3.3885944154E-07
    3.3432032649E-07    3.2984201815E-07    3.2542370438E-07    3.2106458383E-07
    3.1676386574E-07    3.1252076985E-07    3.0833452626E-07    3.0420437527E-07
    3.0012956724E-07    2.9610936251E-07    2.9214303121E-07    2.8822985319E-07
    2.8436911782E-07    2.8056012393E-07    2.7680217967E-07    2.7309460237E-07
    2.6943671841E-07    2.6582786317E-07    2.6226738081E-07    2.5875462424E-07
    2.5528895497E-07    2.5186974300E-07    2.4849636669E-07    2.4516821270E-07
    2.4188467583E-07    2.3864515893E-07    2.3544907281E-07    2.3229583611E-07
    2.2918487523E-07    2.2611562418E-07    2.2308752453E-07    2.2010002527E-07
    2.1715258274E-07    2.1424466053E-07    2.1137572936E-07    2.0854526701E-07
    2.0575275824E-07    2.0299769464E-07    2.0027957461E-07    1.9759790322E-07
    1.9495219217E-07    1.9234195962E-07    1.8976673022E-07    1.8722603491E-07
    1.8471941092E-07    1.8224640163E-07    1.7980655655E-07    1.7739943118E-07
    1.7502458694E-07    1.7268159114E-07    1.7037001684E-07    1.6808944282E-07
    1.6583945347E-07    1.6361963875E-07    1.6142959409E-07    1.5926892031E-07
    1.5713722359E-07    1.5503411535E-07    1.5295921223E-07    1.5091213596E-07
    1.4889251337E-07    1.4689997623E-07    1.4493416128E-07    1.4299471008E-07
    1.4108126902E-07    1.3919348918E-07    1.3733102635E-07    1.3549354088E-07
    1.3368069771E-07    1.3189216622E-07    1.3012762025E-07    1.2838673798E-07
    1.2666920192E-07    1.2497469881E-07    1.2330291960E-07    1.2165355935E-07
    1.2002631724E-07    1.1842089646E-07    1.1683700416E-07    1.1527435145E-07
    1.1373265326E-07    1.1221162839E-07    1.1071099936E-07    1.0923049245E-07
    1.0776983757E-07    1.0632876828E-07    1.0490702169E-07    1.0350433844E-07
    1.0212046264E-07    1.0075514184E-07    9.9408126977E-08    9.8079172310E-08
    9.6768035404E-08    9.5474477071E-08    9.4198261332E-08    9.2939155370E-08
    9.1696929492E-08    9.0471357085E-08    8.9262214573E-08    8.8069281383E-08
    8.6892339895E-08    8.5731175413E-08    8.4585576118E-08    8.3455333035E-08
    8.2340239992E-08    8.1240093581E-08    8.0154693125E-08    7.9083840642E-08
    7.8027340803E-08    7.6985000902E-08    7.5956630819E-08    7.4942042987E-08
    7.3941052354E-08    7.2953476354E-08    7.1979134871E-08    7.1017850205E-08
    7.0069447046E-08    6.9133752433E-08    6.8210595729E-08    6.7299808588E-08
    6.6401224925E-08    6.5514680884E-08    6.4640014810E-08    6.3777067219E-08
    6.2925680766E-08    6.2085700223E-08    6.1256972446E-08    6.0439346344E-08
    5.9632672860E-08    5.8836804937E-08    5.8051597494E-08    5.7276907396E-08
    5.6512593435E-08    5.5758516298E-08    5.5014538542E-08    5.4280524572E-08
    5.3556340615E-08    5.2841854694E-08    5.2136936606E-08    5.1441457897E-08
    5.0755291839E-08    5.0078313408E-08    4.9410399257E-08    4.8751427698E-08
    4.8101278680E-08    4.7459833762E-08    4.6826976096E-08    4.6202590405E-08
    4.5586562960E-08    4.4978781561E-08    4.4379135516E-08    4.3787515619E-08
    4.3203814134E-08    4.2627924771E-08    4.2059742671E-08    4.1499164380E-08
    4.0946087840E-08    4.0400412360E-08    3.9862038605E-08    3.9330868574E-08
    3.8806805584E-08    3.8289754251E-08    3.7779620473E-08    3.7276311414E-08
    3.6779735484E-08    3.6289802325E-08    3.5806422794E-08    3.5329508946E-08
    3.4858974019E-08    3.4394732414E-08    3.3936699688E-08    3.3484792528E-08
    3.3038928743E-08    3.2599027249E-08    3.2165008048E-08    3.1736792219E-08
    3.1314301904E-08    3.0897460288E-08    3.0486191591E-08    3.0080421051E-08
    2.9680074912E-08    2.9285080407E-08    2.8895365750E-08    2.8510860117E-08
    2.8131493640E-08    2.7757197386E-08    2.7387903351E-08    2.7023544446E-08
    2.6664054482E-08    2.6309368159E-08    2.5959421058E-08    2.5614149623E-08
    2.5273491153E-08    2.4937383791E-08    2.4605766511E-08    2.4278579105E-08
    2.3955762179E-08    2.3637257132E-08    2.3323006156E-08    2.3012952215E-08
    2.2707039043E-08    2.2405211129E-08    2.2107413708E-08    2.1813592752E-08
    2.1523694959E-08    2.1237667743E-08    2.0955459223E-08    2.0677018219E-08
    2.0402294236E-08    2.0131237460E-08    1.9863798743E-08    1.9599929600E-08
    1.9339582199E-08    1.9082709347E-08    1.8829264487E-08    1.8579201689E-08
    1.8332475639E-08    1.8089041632E-08    1.7848855563E-08    1.7611873920E-08
    1.7378053778E-08    1.7147352785E-08    1.6919729160E-08    1.6695141684E-08
    1.6473549691E-08    1.6254913062E-08    1.6039192215E-08    1.5826348102E-08
    1.5616342199E-08    1.5409136500E-08    1.5204693508E-08    1.5002976232E-08
    1.4803948176E-08    1.4607573334E-08    1.4413816186E-08    1.4222641688E-08
    1.4034015265E-08    1.3847902809E-08    1.3664270669E-08    1.3483085645E-08
    1.3304314985E-08    1.3127926376E-08    1.2953887937E-08    1.2782168219E-08
    1.2612736191E-08    1.2445561243E-08    1.2280613173E-08    1.2117862185E-08
    1.1957278885E-08    1.1798834272E-08    1.1642499733E-08    1.1488247043E-08
    1.1336048353E-08    1.1185876188E-08    1.1037703444E-08    1.0891503379E-08
    1.0747249610E-08    1.0604916108E-08    1.0464477196E-08    1.0325907537E-08
    1.0189182139E-08    1.0054276343E-08    9.9211658195E-09    9.7898265685E-09
    9.6602349104E-09    9.5323674838E-09    9.4062012407E-09    9.2817134425E-09
    9.1588816556E-09    9.0376837475E-09    8.9180978827E-09    8.8001025185E-09
    8.6836764014E-09    8.5687985629E-09    8.4554483160E-09    8.3436052510E-09
    8.2332492321E-09    8.1243603936E-09    8.0169191362E-09    7.9109061236E-09
    7.8063022788E-09    7.7030887805E-09    7.6012470601E-09    7.5007587978E-09
    7.4016059195E-09    7.3037705936E-09    7.2072352275E-09    7.1119824643E-09
    7.0179951803E-09    6.9252564809E-09    6.8337496983E-09    6.7434583880E-09
    6.6543663260E-09    6.5664575058E-09    6.4797161354E-09    6.3941266345E-09
    6.3096736317E-09    6.2263419614E-09    6.1441166615E-09    6.0629829702E-09
    5.9829263238E-09    5.9039323533E-09    5.8259868828E-09    5.7490759258E-09
    5.6731856836E-09    5.5983025421E-09    5.5244130698E-09    5.4515040149E-09
    5.3795623033E-09    5.3085750360E-09    5.2385294867E-09    5.1694130996E-09
    5.1012134870E-09    5.0339184272E-09    4.9675158621E-09    4.9019938951E-09
    4.8373407889E-09    4.7735449632E-09    4.7105949931E-09    4.6484796063E-09
    4.5871876816E-09    4.5267082466E-09    4.4670304759E-09    4.4081436889E-09
    4.3500373479E-09    4.2927010563E-09    4.2361245568E-09    4.1802977291E-09
    4.1252105885E-09    4.0708532838E-09    4.0172160958E-09    3.9642894351E-09
    3.9120638407E-09    3.8605299783E-09    3.8096786384E-09    3.7595007345E-09
    3.7099873018E-09    3.6611294956E-09    3.6129185891E-09    3.5653459725E-09
    3.5184031510E-09    3.4720817436E-09    3.4263734811E-09    3.3812702050E-09
    3.3367638659E-09    3.2928465221E-09    3.2495103377E-09    3.2067475820E-09
    3.1645506275E-09    3.1229119484E-09    3.0818241199E-09    3.0412798161E-09
    3.0012718092E-09    2.9617929678E-09    2.9228362561E-09    2.8843947320E-09
    2.8464615462E-09    2.8090299412E-09    2.7720932494E-09    2.7356448926E-09
    2.6996783801E-09    2.6641873082E-09    2.6291653587E-09    2.5946062976E-09
    2.5605039744E-09    2.5268523205E-09    2.4936453485E-09    2.4608771509E-09
    2.4285418990E-09    2.3966338421E-09    2.3651473060E-09    2.3340766925E-09
    2.3034164780E-09    2.2731612127E-09    2.2433055194E-09    2.2138440928E-09
    2.1847716984E-09    2.1560831715E-09    2.1277734162E-09    2.0998374048E-09
    2.0722701766E-09    2.0450668371E-09    2.0182225570E-09    1.9917325715E-09
    1.9655921793E-09    1.9397967420E-09    1.9143416827E-09    1.8892224859E-09
    1.8644346961E-09    1.8399739172E-09    1.8158358119E-09    1.7920161006E-09
    1.7685105607E-09    1.7453150259E-09    1.7224253857E-09    1.6998375840E-09
    1.6775476190E-09    1.6555515421E-09    1.6338454576E-09    1.6124255213E-09
    1.5912879406E-09    1.5704289731E-09    1.5498449266E-09    1.5295321578E-09
    1.5094870721E-09    1.4897061227E-09    1.4701858101E-09    1.4509226813E-09
    1.4319133295E-09    1.4131543931E-09    1.3946425553E-09    1.3763745434E-09
    1.3583471284E-09    1.3405571242E-09    1.3230013871E-09    1.3056768155E-09
    1.2885803486E-09    1.2717089668E-09    1.2550596904E-09    1.2386295796E-09
    1.2224157334E-09    1.2064152897E-09    1.1906254243E-09    1.1750433507E-09
    1.1596663194E-09    1.1444916174E-09    1.1295165679E-09    1.1147385298E-09
    1.1001548968E-09    1.0857630977E-09    1.0715605950E-09    1.0575448854E-09
    1.0437134986E-09    1.0300639972E-09    1.0165939763E-09    1.0033010628E-09
    9.9018291539E-10    9.7723722364E-10    9.6446170796E-10    9.5185411900E-10
    9.3941223733E-10    9.2713387301E-10    9.1501686519E-10    9.0305908173E-10
    8.9125841883E-10    8.7961280062E-10    8.6812017881E-10    8.5677853233E-10
    8.4558586694E-10    8.3454021488E-10    8.2363963453E-10    8.1288221007E-10
    8.0226605108E-10    7.9178929227E-10    7.8145009309E-10    7.7124663746E-10
    7.6117713338E-10    7.5123981263E-10    7.4143293047E-10    7.3175476532E-10
    7.2220361844E-10    7.1277781364E-10    7.0347569695E-10    6.9429563636E-10
    6.8523602152E-10    6.7629526343E-10    6.6747179416E-10    6.5876406659E-10
    6.5017055412E-10    6.4168975040E-10    6.3332016903E-10    6.2506034336E-10
    6.1690882615E-10    6.0886418937E-10    6.0092502390E-10    5.9308993934E-10
    5.8535756368E-10    5.7772654311E-10    5.7019554177E-10    5.6276324149E-10
    5.5542834158E-10    5.4818955858E-10    5.4104562603E-10    5.3399529426E-10
    5.2703733015E-10    5.2017051691E-10    5.1339365388E-10    5.0670555629E-10
    5.0010505506E-10    4.9359099661E-10    4.8716224262E-10    4.8081766985E-10
    4.7455616992E-10    4.6837664914E-10    4.6227802829E-10    4.5625924244E-10
    4.5031924075E-10    4.4445698629E-10    4.3867145586E-10    4.3296163978E-10
    4.2732654177E-10    4.2176517869E-10    4.1627658043E-10    4.1085978971E-10
    4.0551386192E-10    4.0023786493E-10    3.9503087894E-10    3.8989199633E-10
    3.8482032148E-10    3.7981497060E-10    3.7487507161E-10    3.6999976392E-10
    3.6518819836E-10    3.6043953697E-10    3.5575295286E-10    3.5112763008E-10
    3.4656276345E-10    3.4205755845E-10    3.3761123106E-10    3.3322300759E-10
    3.2889212461E-10    3.2461782875E-10    3.2039937662E-10    3.1623603461E-10
    3.1212707885E-10    3.0807179498E-10    3.0406947812E-10    3.0011943267E-10
    2.9622097222E-10    2.9237341944E-10    2.8857610593E-10    2.8482837210E-10
    2.8112956710E-10    2.7747904864E-10    2.7387618294E-10    2.7032034456E-10
    2.6681091631E-10    2.6334728918E-10    2.5992886215E-10    2.5655504217E-10
    2.5322524398E-10    2.4993889008E-10    2.4669541055E-10    2.4349424301E-10
    2.4033483250E-10    2.3721663135E-10    2.3413909916E-10    2.3110170261E-10
    2.2810391545E-10    2.2514521833E-10    2.2222509879E-10    2.1934305108E-10
    2.1649857616E-10    2.1369118154E-10    2.1092038123E-10    2.0818569564E-10
    2.0548665151E-10    2.0282278181E-10    2.0019362566E-10    1.9759872826E-10
    1.9503764079E-10    1.9250992036E-10    1.9001512990E-10    1.8755283809E-10
    1.8512261931E-10    1.8272405354E-10    1.8035672628E-10    1.7802022850E-10
    1.7571415654E-10    1.7343811208E-10
 </PP_TAUATOM>
</UPF>