5
pbc=[T, T, T] Lattice="2.83715637 1.63803299 2.32836556 -2.83715637 1.63803299 2.32836556 0.00000000 -3.27606598 2.32836556" Properties=species:S:1:pos:R:3:velocities:R:3:Z:I:1
Ba         0.00000000      -0.00000000       0.02211339         0.00000000       0.00000000       0.00000000         56
Ti         0.00000000       3.27606598       1.27701067         0.00000000       0.00000000       0.00000000         22
O         0.00000000       1.66886106       2.23888450         0.00000000       0.00000000       0.00000000          8
O         1.39188029       4.07966845       2.23888450         0.00000000       0.00000000       0.00000000          8
O        -1.39188029       4.07966845       2.23888450         0.00000000       0.00000000       0.00000000          8
