<UPF version="2.0.1">
  <PP_INFO>

 This pseudopotential file has been produced using the code
 METAPSP-1.0.0, a code for metagga functails adapted in 2024 from
 ONCVPSP  (Optimized Norm-Conservinng Vanderbilt PSeudopotential)
 scalar-relativistic version 4.0.1 06/04/2019 by D. R. Hamann
 The code is available through a link at URL www.mat-simresearch.com.
 Documentation with the package provides a full discription of the
 input data below.


 While it is not required under the terms of the GNU GPL, it is
 suggested that you cite D. R. Hamann, Phys. Rev. B 88, 085117 (2013)
 in any publication using these pseudopotentials.

    <PP_INPUTFILE>
# ATOM AND REFERENCE CONFIGURATION
# atsym  z   nc   nv     iexc    psfile
  C  6.00    1    2       5      upf
#
#   n    l    f        energy (Ha)
    1    0    2.00
    2    0    2.00
    2    1    2.00
#
# PSEUDOPOTENTIAL AND OPTIMIZATION
# lmax
    1
#
#   l,   rc,      ep,       ncon, nbas, qcut
    0   1.30000  -0.50533    4    8  10.50000
    1   1.30000  -0.19424    4    8   9.40000
#
# LOCAL POTENTIAL
# lloc, lpopt,  rc(5),   dvloc0
    4    5   1.10000      0.00000
#
# VANDERBILT-KLEINMAN-BYLANDER PROJECTORs
# l, nproj, debl
    0    2   2.00000
    1    2   1.50000
#
# MODEL CORE CHARGE
# icmod, fcfact, rcfact
    5   3.00000   0.50000
#
# LOG DERIVATIVE ANALYSIS
# epsh1, epsh2, depsh
  -12.00   12.00    0.02
#
# OUTPUT GRID
# rlmax, drl
    6.00    0.01
#
# TEST CONFIGURATIONS
# ncnf
    0
# nvcnf
#   n    l    f
    </PP_INPUTFILE>
  </PP_INFO>
  <!--                               -->
  <!-- END OF HUMAN READABLE SECTION -->
  <!--                               -->
    <PP_HEADER
       generated="Generated using METAPSP code by D. R. Hamann"
       author="anonymous"
       date="260415"
       comment=""
       element="C "
       pseudo_type="NC"
       relativistic="F"
       is_ultrasoft="F"
       is_paw="F"
       is_coulomb="F"
       has_so="F"
       has_wfc="F"
       has_gipaw="F"
       core_correction="T"
       with_metagga_info="T"
       functional="R2SCAN01"
       z_valence="    4.00"
       total_psenergy="  -6.42550916568E+00"
       rho_cutoff="   1.23100000000E+01"
       l_max="1"
       l_local="-1"
       mesh_size="  1232"
       number_of_wfc="2"
       number_of_proj="4"/>
 <PP_MESH>
   <PP_R type="real"  size="1232" columns="8">
    0.0000    0.0100    0.0200    0.0300    0.0400    0.0500    0.0600    0.0700
    0.0800    0.0900    0.1000    0.1100    0.1200    0.1300    0.1400    0.1500
    0.1600    0.1700    0.1800    0.1900    0.2000    0.2100    0.2200    0.2300
    0.2400    0.2500    0.2600    0.2700    0.2800    0.2900    0.3000    0.3100
    0.3200    0.3300    0.3400    0.3500    0.3600    0.3700    0.3800    0.3900
    0.4000    0.4100    0.4200    0.4300    0.4400    0.4500    0.4600    0.4700
    0.4800    0.4900    0.5000    0.5100    0.5200    0.5300    0.5400    0.5500
    0.5600    0.5700    0.5800    0.5900    0.6000    0.6100    0.6200    0.6300
    0.6400    0.6500    0.6600    0.6700    0.6800    0.6900    0.7000    0.7100
    0.7200    0.7300    0.7400    0.7500    0.7600    0.7700    0.7800    0.7900
    0.8000    0.8100    0.8200    0.8300    0.8400    0.8500    0.8600    0.8700
    0.8800    0.8900    0.9000    0.9100    0.9200    0.9300    0.9400    0.9500
    0.9600    0.9700    0.9800    0.9900    1.0000    1.0100    1.0200    1.0300
    1.0400    1.0500    1.0600    1.0700    1.0800    1.0900    1.1000    1.1100
    1.1200    1.1300    1.1400    1.1500    1.1600    1.1700    1.1800    1.1900
    1.2000    1.2100    1.2200    1.2300    1.2400    1.2500    1.2600    1.2700
    1.2800    1.2900    1.3000    1.3100    1.3200    1.3300    1.3400    1.3500
    1.3600    1.3700    1.3800    1.3900    1.4000    1.4100    1.4200    1.4300
    1.4400    1.4500    1.4600    1.4700    1.4800    1.4900    1.5000    1.5100
    1.5200    1.5300    1.5400    1.5500    1.5600    1.5700    1.5800    1.5900
    1.6000    1.6100    1.6200    1.6300    1.6400    1.6500    1.6600    1.6700
    1.6800    1.6900    1.7000    1.7100    1.7200    1.7300    1.7400    1.7500
    1.7600    1.7700    1.7800    1.7900    1.8000    1.8100    1.8200    1.8300
    1.8400    1.8500    1.8600    1.8700    1.8800    1.8900    1.9000    1.9100
    1.9200    1.9300    1.9400    1.9500    1.9600    1.9700    1.9800    1.9900
    2.0000    2.0100    2.0200    2.0300    2.0400    2.0500    2.0600    2.0700
    2.0800    2.0900    2.1000    2.1100    2.1200    2.1300    2.1400    2.1500
    2.1600    2.1700    2.1800    2.1900    2.2000    2.2100    2.2200    2.2300
    2.2400    2.2500    2.2600    2.2700    2.2800    2.2900    2.3000    2.3100
    2.3200    2.3300    2.3400    2.3500    2.3600    2.3700    2.3800    2.3900
    2.4000    2.4100    2.4200    2.4300    2.4400    2.4500    2.4600    2.4700
    2.4800    2.4900    2.5000    2.5100    2.5200    2.5300    2.5400    2.5500
    2.5600    2.5700    2.5800    2.5900    2.6000    2.6100    2.6200    2.6300
    2.6400    2.6500    2.6600    2.6700    2.6800    2.6900    2.7000    2.7100
    2.7200    2.7300    2.7400    2.7500    2.7600    2.7700    2.7800    2.7900
    2.8000    2.8100    2.8200    2.8300    2.8400    2.8500    2.8600    2.8700
    2.8800    2.8900    2.9000    2.9100    2.9200    2.9300    2.9400    2.9500
    2.9600    2.9700    2.9800    2.9900    3.0000    3.0100    3.0200    3.0300
    3.0400    3.0500    3.0600    3.0700    3.0800    3.0900    3.1000    3.1100
    3.1200    3.1300    3.1400    3.1500    3.1600    3.1700    3.1800    3.1900
    3.2000    3.2100    3.2200    3.2300    3.2400    3.2500    3.2600    3.2700
    3.2800    3.2900    3.3000    3.3100    3.3200    3.3300    3.3400    3.3500
    3.3600    3.3700    3.3800    3.3900    3.4000    3.4100    3.4200    3.4300
    3.4400    3.4500    3.4600    3.4700    3.4800    3.4900    3.5000    3.5100
    3.5200    3.5300    3.5400    3.5500    3.5600    3.5700    3.5800    3.5900
    3.6000    3.6100    3.6200    3.6300    3.6400    3.6500    3.6600    3.6700
    3.6800    3.6900    3.7000    3.7100    3.7200    3.7300    3.7400    3.7500
    3.7600    3.7700    3.7800    3.7900    3.8000    3.8100    3.8200    3.8300
    3.8400    3.8500    3.8600    3.8700    3.8800    3.8900    3.9000    3.9100
    3.9200    3.9300    3.9400    3.9500    3.9600    3.9700    3.9800    3.9900
    4.0000    4.0100    4.0200    4.0300    4.0400    4.0500    4.0600    4.0700
    4.0800    4.0900    4.1000    4.1100    4.1200    4.1300    4.1400    4.1500
    4.1600    4.1700    4.1800    4.1900    4.2000    4.2100    4.2200    4.2300
    4.2400    4.2500    4.2600    4.2700    4.2800    4.2900    4.3000    4.3100
    4.3200    4.3300    4.3400    4.3500    4.3600    4.3700    4.3800    4.3900
    4.4000    4.4100    4.4200    4.4300    4.4400    4.4500    4.4600    4.4700
    4.4800    4.4900    4.5000    4.5100    4.5200    4.5300    4.5400    4.5500
    4.5600    4.5700    4.5800    4.5900    4.6000    4.6100    4.6200    4.6300
    4.6400    4.6500    4.6600    4.6700    4.6800    4.6900    4.7000    4.7100
    4.7200    4.7300    4.7400    4.7500    4.7600    4.7700    4.7800    4.7900
    4.8000    4.8100    4.8200    4.8300    4.8400    4.8500    4.8600    4.8700
    4.8800    4.8900    4.9000    4.9100    4.9200    4.9300    4.9400    4.9500
    4.9600    4.9700    4.9800    4.9900    5.0000    5.0100    5.0200    5.0300
    5.0400    5.0500    5.0600    5.0700    5.0800    5.0900    5.1000    5.1100
    5.1200    5.1300    5.1400    5.1500    5.1600    5.1700    5.1800    5.1900
    5.2000    5.2100    5.2200    5.2300    5.2400    5.2500    5.2600    5.2700
    5.2800    5.2900    5.3000    5.3100    5.3200    5.3300    5.3400    5.3500
    5.3600    5.3700    5.3800    5.3900    5.4000    5.4100    5.4200    5.4300
    5.4400    5.4500    5.4600    5.4700    5.4800    5.4900    5.5000    5.5100
    5.5200    5.5300    5.5400    5.5500    5.5600    5.5700    5.5800    5.5900
    5.6000    5.6100    5.6200    5.6300    5.6400    5.6500    5.6600    5.6700
    5.6800    5.6900    5.7000    5.7100    5.7200    5.7300    5.7400    5.7500
    5.7600    5.7700    5.7800    5.7900    5.8000    5.8100    5.8200    5.8300
    5.8400    5.8500    5.8600    5.8700    5.8800    5.8900    5.9000    5.9100
    5.9200    5.9300    5.9400    5.9500    5.9600    5.9700    5.9800    5.9900
    6.0000    6.0100    6.0200    6.0300    6.0400    6.0500    6.0600    6.0700
    6.0800    6.0900    6.1000    6.1100    6.1200    6.1300    6.1400    6.1500
    6.1600    6.1700    6.1800    6.1900    6.2000    6.2100    6.2200    6.2300
    6.2400    6.2500    6.2600    6.2700    6.2800    6.2900    6.3000    6.3100
    6.3200    6.3300    6.3400    6.3500    6.3600    6.3700    6.3800    6.3900
    6.4000    6.4100    6.4200    6.4300    6.4400    6.4500    6.4600    6.4700
    6.4800    6.4900    6.5000    6.5100    6.5200    6.5300    6.5400    6.5500
    6.5600    6.5700    6.5800    6.5900    6.6000    6.6100    6.6200    6.6300
    6.6400    6.6500    6.6600    6.6700    6.6800    6.6900    6.7000    6.7100
    6.7200    6.7300    6.7400    6.7500    6.7600    6.7700    6.7800    6.7900
    6.8000    6.8100    6.8200    6.8300    6.8400    6.8500    6.8600    6.8700
    6.8800    6.8900    6.9000    6.9100    6.9200    6.9300    6.9400    6.9500
    6.9600    6.9700    6.9800    6.9900    7.0000    7.0100    7.0200    7.0300
    7.0400    7.0500    7.0600    7.0700    7.0800    7.0900    7.1000    7.1100
    7.1200    7.1300    7.1400    7.1500    7.1600    7.1700    7.1800    7.1900
    7.2000    7.2100    7.2200    7.2300    7.2400    7.2500    7.2600    7.2700
    7.2800    7.2900    7.3000    7.3100    7.3200    7.3300    7.3400    7.3500
    7.3600    7.3700    7.3800    7.3900    7.4000    7.4100    7.4200    7.4300
    7.4400    7.4500    7.4600    7.4700    7.4800    7.4900    7.5000    7.5100
    7.5200    7.5300    7.5400    7.5500    7.5600    7.5700    7.5800    7.5900
    7.6000    7.6100    7.6200    7.6300    7.6400    7.6500    7.6600    7.6700
    7.6800    7.6900    7.7000    7.7100    7.7200    7.7300    7.7400    7.7500
    7.7600    7.7700    7.7800    7.7900    7.8000    7.8100    7.8200    7.8300
    7.8400    7.8500    7.8600    7.8700    7.8800    7.8900    7.9000    7.9100
    7.9200    7.9300    7.9400    7.9500    7.9600    7.9700    7.9800    7.9900
    8.0000    8.0100    8.0200    8.0300    8.0400    8.0500    8.0600    8.0700
    8.0800    8.0900    8.1000    8.1100    8.1200    8.1300    8.1400    8.1500
    8.1600    8.1700    8.1800    8.1900    8.2000    8.2100    8.2200    8.2300
    8.2400    8.2500    8.2600    8.2700    8.2800    8.2900    8.3000    8.3100
    8.3200    8.3300    8.3400    8.3500    8.3600    8.3700    8.3800    8.3900
    8.4000    8.4100    8.4200    8.4300    8.4400    8.4500    8.4600    8.4700
    8.4800    8.4900    8.5000    8.5100    8.5200    8.5300    8.5400    8.5500
    8.5600    8.5700    8.5800    8.5900    8.6000    8.6100    8.6200    8.6300
    8.6400    8.6500    8.6600    8.6700    8.6800    8.6900    8.7000    8.7100
    8.7200    8.7300    8.7400    8.7500    8.7600    8.7700    8.7800    8.7900
    8.8000    8.8100    8.8200    8.8300    8.8400    8.8500    8.8600    8.8700
    8.8800    8.8900    8.9000    8.9100    8.9200    8.9300    8.9400    8.9500
    8.9600    8.9700    8.9800    8.9900    9.0000    9.0100    9.0200    9.0300
    9.0400    9.0500    9.0600    9.0700    9.0800    9.0900    9.1000    9.1100
    9.1200    9.1300    9.1400    9.1500    9.1600    9.1700    9.1800    9.1900
    9.2000    9.2100    9.2200    9.2300    9.2400    9.2500    9.2600    9.2700
    9.2800    9.2900    9.3000    9.3100    9.3200    9.3300    9.3400    9.3500
    9.3600    9.3700    9.3800    9.3900    9.4000    9.4100    9.4200    9.4300
    9.4400    9.4500    9.4600    9.4700    9.4800    9.4900    9.5000    9.5100
    9.5200    9.5300    9.5400    9.5500    9.5600    9.5700    9.5800    9.5900
    9.6000    9.6100    9.6200    9.6300    9.6400    9.6500    9.6600    9.6700
    9.6800    9.6900    9.7000    9.7100    9.7200    9.7300    9.7400    9.7500
    9.7600    9.7700    9.7800    9.7900    9.8000    9.8100    9.8200    9.8300
    9.8400    9.8500    9.8600    9.8700    9.8800    9.8900    9.9000    9.9100
    9.9200    9.9300    9.9400    9.9500    9.9600    9.9700    9.9800    9.9900
   10.0000   10.0100   10.0200   10.0300   10.0400   10.0500   10.0600   10.0700
   10.0800   10.0900   10.1000   10.1100   10.1200   10.1300   10.1400   10.1500
   10.1600   10.1700   10.1800   10.1900   10.2000   10.2100   10.2200   10.2300
   10.2400   10.2500   10.2600   10.2700   10.2800   10.2900   10.3000   10.3100
   10.3200   10.3300   10.3400   10.3500   10.3600   10.3700   10.3800   10.3900
   10.4000   10.4100   10.4200   10.4300   10.4400   10.4500   10.4600   10.4700
   10.4800   10.4900   10.5000   10.5100   10.5200   10.5300   10.5400   10.5500
   10.5600   10.5700   10.5800   10.5900   10.6000   10.6100   10.6200   10.6300
   10.6400   10.6500   10.6600   10.6700   10.6800   10.6900   10.7000   10.7100
   10.7200   10.7300   10.7400   10.7500   10.7600   10.7700   10.7800   10.7900
   10.8000   10.8100   10.8200   10.8300   10.8400   10.8500   10.8600   10.8700
   10.8800   10.8900   10.9000   10.9100   10.9200   10.9300   10.9400   10.9500
   10.9600   10.9700   10.9800   10.9900   11.0000   11.0100   11.0200   11.0300
   11.0400   11.0500   11.0600   11.0700   11.0800   11.0900   11.1000   11.1100
   11.1200   11.1300   11.1400   11.1500   11.1600   11.1700   11.1800   11.1900
   11.2000   11.2100   11.2200   11.2300   11.2400   11.2500   11.2600   11.2700
   11.2800   11.2900   11.3000   11.3100   11.3200   11.3300   11.3400   11.3500
   11.3600   11.3700   11.3800   11.3900   11.4000   11.4100   11.4200   11.4300
   11.4400   11.4500   11.4600   11.4700   11.4800   11.4900   11.5000   11.5100
   11.5200   11.5300   11.5400   11.5500   11.5600   11.5700   11.5800   11.5900
   11.6000   11.6100   11.6200   11.6300   11.6400   11.6500   11.6600   11.6700
   11.6800   11.6900   11.7000   11.7100   11.7200   11.7300   11.7400   11.7500
   11.7600   11.7700   11.7800   11.7900   11.8000   11.8100   11.8200   11.8300
   11.8400   11.8500   11.8600   11.8700   11.8800   11.8900   11.9000   11.9100
   11.9200   11.9300   11.9400   11.9500   11.9600   11.9700   11.9800   11.9900
   12.0000   12.0100   12.0200   12.0300   12.0400   12.0500   12.0600   12.0700
   12.0800   12.0900   12.1000   12.1100   12.1200   12.1300   12.1400   12.1500
   12.1600   12.1700   12.1800   12.1900   12.2000   12.2100   12.2200   12.2300
   12.2400   12.2500   12.2600   12.2700   12.2800   12.2900   12.3000   12.3100
   </PP_R>
   <PP_RAB type="real"  size="1232" columns="8">
    0.0100    0.0100    0.0100    0.0100    0.0100    0.0100    0.0100    0.0100
    0.0100    0.0100    0.0100    0.0100    0.0100    0.0100    0.0100    0.0100
    0.0100    0.0100    0.0100    0.0100    0.0100    0.0100    0.0100    0.0100
    0.0100    0.0100    0.0100    0.0100    0.0100    0.0100    0.0100    0.0100
    0.0100    0.0100    0.0100    0.0100    0.0100    0.0100    0.0100    0.0100
    0.0100    0.0100    0.0100    0.0100    0.0100    0.0100    0.0100    0.0100
    0.0100    0.0100    0.0100    0.0100    0.0100    0.0100    0.0100    0.0100
    0.0100    0.0100    0.0100    0.0100    0.0100    0.0100    0.0100    0.0100
    0.0100    0.0100    0.0100    0.0100    0.0100    0.0100    0.0100    0.0100
    0.0100    0.0100    0.0100    0.0100    0.0100    0.0100    0.0100    0.0100
    0.0100    0.0100    0.0100    0.0100    0.0100    0.0100    0.0100    0.0100
    0.0100    0.0100    0.0100    0.0100    0.0100    0.0100    0.0100    0.0100
    0.0100    0.0100    0.0100    0.0100    0.0100    0.0100    0.0100    0.0100
    0.0100    0.0100    0.0100    0.0100    0.0100    0.0100    0.0100    0.0100
    0.0100    0.0100    0.0100    0.0100    0.0100    0.0100    0.0100    0.0100
    0.0100    0.0100    0.0100    0.0100    0.0100    0.0100    0.0100    0.0100
    0.0100    0.0100    0.0100    0.0100    0.0100    0.0100    0.0100    0.0100
    0.0100    0.0100    0.0100    0.0100    0.0100    0.0100    0.0100    0.0100
    0.0100    0.0100    0.0100    0.0100    0.0100    0.0100    0.0100    0.0100
    0.0100    0.0100    0.0100    0.0100    0.0100    0.0100    0.0100    0.0100
    0.0100    0.0100    0.0100    0.0100    0.0100    0.0100    0.0100    0.0100
    0.0100    0.0100    0.0100    0.0100    0.0100    0.0100    0.0100    0.0100
    0.0100    0.0100    0.0100    0.0100    0.0100    0.0100    0.0100    0.0100
    0.0100    0.0100    0.0100    0.0100    0.0100    0.0100    0.0100    0.0100
    0.0100    0.0100    0.0100    0.0100    0.0100    0.0100    0.0100    0.0100
    0.0100    0.0100    0.0100    0.0100    0.0100    0.0100    0.0100    0.0100
    0.0100    0.0100    0.0100    0.0100    0.0100    0.0100    0.0100    0.0100
    0.0100    0.0100    0.0100    0.0100    0.0100    0.0100    0.0100    0.0100
    0.0100    0.0100    0.0100    0.0100    0.0100    0.0100    0.0100    0.0100
    0.0100    0.0100    0.0100    0.0100    0.0100    0.0100    0.0100    0.0100
    0.0100    0.0100    0.0100    0.0100    0.0100    0.0100    0.0100    0.0100
    0.0100    0.0100    0.0100    0.0100    0.0100    0.0100    0.0100    0.0100
    0.0100    0.0100    0.0100    0.0100    0.0100    0.0100    0.0100    0.0100
    0.0100    0.0100    0.0100    0.0100    0.0100    0.0100    0.0100    0.0100
    0.0100    0.0100    0.0100    0.0100    0.0100    0.0100    0.0100    0.0100
    0.0100    0.0100    0.0100    0.0100    0.0100    0.0100    0.0100    0.0100
    0.0100    0.0100    0.0100    0.0100    0.0100    0.0100    0.0100    0.0100
    0.0100    0.0100    0.0100    0.0100    0.0100    0.0100    0.0100    0.0100
    0.0100    0.0100    0.0100    0.0100    0.0100    0.0100    0.0100    0.0100
    0.0100    0.0100    0.0100    0.0100    0.0100    0.0100    0.0100    0.0100
    0.0100    0.0100    0.0100    0.0100    0.0100    0.0100    0.0100    0.0100
    0.0100    0.0100    0.0100    0.0100    0.0100    0.0100    0.0100    0.0100
    0.0100    0.0100    0.0100    0.0100    0.0100    0.0100    0.0100    0.0100
    0.0100    0.0100    0.0100    0.0100    0.0100    0.0100    0.0100    0.0100
    0.0100    0.0100    0.0100    0.0100    0.0100    0.0100    0.0100    0.0100
    0.0100    0.0100    0.0100    0.0100    0.0100    0.0100    0.0100    0.0100
    0.0100    0.0100    0.0100    0.0100    0.0100    0.0100    0.0100    0.0100
    0.0100    0.0100    0.0100    0.0100    0.0100    0.0100    0.0100    0.0100
    0.0100    0.0100    0.0100    0.0100    0.0100    0.0100    0.0100    0.0100
    0.0100    0.0100    0.0100    0.0100    0.0100    0.0100    0.0100    0.0100
    0.0100    0.0100    0.0100    0.0100    0.0100    0.0100    0.0100    0.0100
    0.0100    0.0100    0.0100    0.0100    0.0100    0.0100    0.0100    0.0100
    0.0100    0.0100    0.0100    0.0100    0.0100    0.0100    0.0100    0.0100
    0.0100    0.0100    0.0100    0.0100    0.0100    0.0100    0.0100    0.0100
    0.0100    0.0100    0.0100    0.0100    0.0100    0.0100    0.0100    0.0100
    0.0100    0.0100    0.0100    0.0100    0.0100    0.0100    0.0100    0.0100
    0.0100    0.0100    0.0100    0.0100    0.0100    0.0100    0.0100    0.0100
    0.0100    0.0100    0.0100    0.0100    0.0100    0.0100    0.0100    0.0100
    0.0100    0.0100    0.0100    0.0100    0.0100    0.0100    0.0100    0.0100
    0.0100    0.0100    0.0100    0.0100    0.0100    0.0100    0.0100    0.0100
    0.0100    0.0100    0.0100    0.0100    0.0100    0.0100    0.0100    0.0100
    0.0100    0.0100    0.0100    0.0100    0.0100    0.0100    0.0100    0.0100
    0.0100    0.0100    0.0100    0.0100    0.0100    0.0100    0.0100    0.0100
    0.0100    0.0100    0.0100    0.0100    0.0100    0.0100    0.0100    0.0100
    0.0100    0.0100    0.0100    0.0100    0.0100    0.0100    0.0100    0.0100
    0.0100    0.0100    0.0100    0.0100    0.0100    0.0100    0.0100    0.0100
    0.0100    0.0100    0.0100    0.0100    0.0100    0.0100    0.0100    0.0100
    0.0100    0.0100    0.0100    0.0100    0.0100    0.0100    0.0100    0.0100
    0.0100    0.0100    0.0100    0.0100    0.0100    0.0100    0.0100    0.0100
    0.0100    0.0100    0.0100    0.0100    0.0100    0.0100    0.0100    0.0100
    0.0100    0.0100    0.0100    0.0100    0.0100    0.0100    0.0100    0.0100
    0.0100    0.0100    0.0100    0.0100    0.0100    0.0100    0.0100    0.0100
    0.0100    0.0100    0.0100    0.0100    0.0100    0.0100    0.0100    0.0100
    0.0100    0.0100    0.0100    0.0100    0.0100    0.0100    0.0100    0.0100
    0.0100    0.0100    0.0100    0.0100    0.0100    0.0100    0.0100    0.0100
    0.0100    0.0100    0.0100    0.0100    0.0100    0.0100    0.0100    0.0100
    0.0100    0.0100    0.0100    0.0100    0.0100    0.0100    0.0100    0.0100
    0.0100    0.0100    0.0100    0.0100    0.0100    0.0100    0.0100    0.0100
    0.0100    0.0100    0.0100    0.0100    0.0100    0.0100    0.0100    0.0100
    0.0100    0.0100    0.0100    0.0100    0.0100    0.0100    0.0100    0.0100
    0.0100    0.0100    0.0100    0.0100    0.0100    0.0100    0.0100    0.0100
    0.0100    0.0100    0.0100    0.0100    0.0100    0.0100    0.0100    0.0100
    0.0100    0.0100    0.0100    0.0100    0.0100    0.0100    0.0100    0.0100
    0.0100    0.0100    0.0100    0.0100    0.0100    0.0100    0.0100    0.0100
    0.0100    0.0100    0.0100    0.0100    0.0100    0.0100    0.0100    0.0100
    0.0100    0.0100    0.0100    0.0100    0.0100    0.0100    0.0100    0.0100
    0.0100    0.0100    0.0100    0.0100    0.0100    0.0100    0.0100    0.0100
    0.0100    0.0100    0.0100    0.0100    0.0100    0.0100    0.0100    0.0100
    0.0100    0.0100    0.0100    0.0100    0.0100    0.0100    0.0100    0.0100
    0.0100    0.0100    0.0100    0.0100    0.0100    0.0100    0.0100    0.0100
    0.0100    0.0100    0.0100    0.0100    0.0100    0.0100    0.0100    0.0100
    0.0100    0.0100    0.0100    0.0100    0.0100    0.0100    0.0100    0.0100
    0.0100    0.0100    0.0100    0.0100    0.0100    0.0100    0.0100    0.0100
    0.0100    0.0100    0.0100    0.0100    0.0100    0.0100    0.0100    0.0100
    0.0100    0.0100    0.0100    0.0100    0.0100    0.0100    0.0100    0.0100
    0.0100    0.0100    0.0100    0.0100    0.0100    0.0100    0.0100    0.0100
    0.0100    0.0100    0.0100    0.0100    0.0100    0.0100    0.0100    0.0100
    0.0100    0.0100    0.0100    0.0100    0.0100    0.0100    0.0100    0.0100
    0.0100    0.0100    0.0100    0.0100    0.0100    0.0100    0.0100    0.0100
    0.0100    0.0100    0.0100    0.0100    0.0100    0.0100    0.0100    0.0100
    0.0100    0.0100    0.0100    0.0100    0.0100    0.0100    0.0100    0.0100
    0.0100    0.0100    0.0100    0.0100    0.0100    0.0100    0.0100    0.0100
    0.0100    0.0100    0.0100    0.0100    0.0100    0.0100    0.0100    0.0100
    0.0100    0.0100    0.0100    0.0100    0.0100    0.0100    0.0100    0.0100
    0.0100    0.0100    0.0100    0.0100    0.0100    0.0100    0.0100    0.0100
    0.0100    0.0100    0.0100    0.0100    0.0100    0.0100    0.0100    0.0100
    0.0100    0.0100    0.0100    0.0100    0.0100    0.0100    0.0100    0.0100
    0.0100    0.0100    0.0100    0.0100    0.0100    0.0100    0.0100    0.0100
    0.0100    0.0100    0.0100    0.0100    0.0100    0.0100    0.0100    0.0100
    0.0100    0.0100    0.0100    0.0100    0.0100    0.0100    0.0100    0.0100
    0.0100    0.0100    0.0100    0.0100    0.0100    0.0100    0.0100    0.0100
    0.0100    0.0100    0.0100    0.0100    0.0100    0.0100    0.0100    0.0100
    0.0100    0.0100    0.0100    0.0100    0.0100    0.0100    0.0100    0.0100
    0.0100    0.0100    0.0100    0.0100    0.0100    0.0100    0.0100    0.0100
    0.0100    0.0100    0.0100    0.0100    0.0100    0.0100    0.0100    0.0100
    0.0100    0.0100    0.0100    0.0100    0.0100    0.0100    0.0100    0.0100
    0.0100    0.0100    0.0100    0.0100    0.0100    0.0100    0.0100    0.0100
    0.0100    0.0100    0.0100    0.0100    0.0100    0.0100    0.0100    0.0100
    0.0100    0.0100    0.0100    0.0100    0.0100    0.0100    0.0100    0.0100
    0.0100    0.0100    0.0100    0.0100    0.0100    0.0100    0.0100    0.0100
    0.0100    0.0100    0.0100    0.0100    0.0100    0.0100    0.0100    0.0100
    0.0100    0.0100    0.0100    0.0100    0.0100    0.0100    0.0100    0.0100
    0.0100    0.0100    0.0100    0.0100    0.0100    0.0100    0.0100    0.0100
    0.0100    0.0100    0.0100    0.0100    0.0100    0.0100    0.0100    0.0100
    0.0100    0.0100    0.0100    0.0100    0.0100    0.0100    0.0100    0.0100
    0.0100    0.0100    0.0100    0.0100    0.0100    0.0100    0.0100    0.0100
    0.0100    0.0100    0.0100    0.0100    0.0100    0.0100    0.0100    0.0100
    0.0100    0.0100    0.0100    0.0100    0.0100    0.0100    0.0100    0.0100
    0.0100    0.0100    0.0100    0.0100    0.0100    0.0100    0.0100    0.0100
    0.0100    0.0100    0.0100    0.0100    0.0100    0.0100    0.0100    0.0100
    0.0100    0.0100    0.0100    0.0100    0.0100    0.0100    0.0100    0.0100
    0.0100    0.0100    0.0100    0.0100    0.0100    0.0100    0.0100    0.0100
    0.0100    0.0100    0.0100    0.0100    0.0100    0.0100    0.0100    0.0100
    0.0100    0.0100    0.0100    0.0100    0.0100    0.0100    0.0100    0.0100
    0.0100    0.0100    0.0100    0.0100    0.0100    0.0100    0.0100    0.0100
    0.0100    0.0100    0.0100    0.0100    0.0100    0.0100    0.0100    0.0100
    0.0100    0.0100    0.0100    0.0100    0.0100    0.0100    0.0100    0.0100
    0.0100    0.0100    0.0100    0.0100    0.0100    0.0100    0.0100    0.0100
    0.0100    0.0100    0.0100    0.0100    0.0100    0.0100    0.0100    0.0100
    0.0100    0.0100    0.0100    0.0100    0.0100    0.0100    0.0100    0.0100
    0.0100    0.0100    0.0100    0.0100    0.0100    0.0100    0.0100    0.0100
    0.0100    0.0100    0.0100    0.0100    0.0100    0.0100    0.0100    0.0100
    0.0100    0.0100    0.0100    0.0100    0.0100    0.0100    0.0100    0.0100
    0.0100    0.0100    0.0100    0.0100    0.0100    0.0100    0.0100    0.0100
    0.0100    0.0100    0.0100    0.0100    0.0100    0.0100    0.0100    0.0100
    0.0100    0.0100    0.0100    0.0100    0.0100    0.0100    0.0100    0.0100
    0.0100    0.0100    0.0100    0.0100    0.0100    0.0100    0.0100    0.0100
    0.0100    0.0100    0.0100    0.0100    0.0100    0.0100    0.0100    0.0100
    0.0100    0.0100    0.0100    0.0100    0.0100    0.0100    0.0100    0.0100
    0.0100    0.0100    0.0100    0.0100    0.0100    0.0100    0.0100    0.0100
    0.0100    0.0100    0.0100    0.0100    0.0100    0.0100    0.0100    0.0100
    0.0100    0.0100    0.0100    0.0100    0.0100    0.0100    0.0100    0.0100
    0.0100    0.0100    0.0100    0.0100    0.0100    0.0100    0.0100    0.0100
    0.0100    0.0100    0.0100    0.0100    0.0100    0.0100    0.0100    0.0100
   </PP_RAB>
 </PP_MESH>
  <PP_LOCAL type="real"  size="1232" columns="4">
   -1.8637386458E+01   -1.8635563834E+01   -1.8630105264E+01   -1.8621004099E+01
   -1.8608254831E+01   -1.8591849396E+01   -1.8571776825E+01   -1.8548022796E+01
   -1.8520569085E+01   -1.8489392854E+01   -1.8454465766E+01   -1.8415752893E+01
   -1.8373211416E+01   -1.8326789125E+01   -1.8276422726E+01   -1.8222036016E+01
   -1.8163537971E+01   -1.8100820878E+01   -1.8033758679E+01   -1.7962205806E+01
   -1.7885996866E+01   -1.7804947729E+01   -1.7718858702E+01   -1.7627520697E+01
   -1.7530725489E+01   -1.7428281283E+01   -1.7320034910E+01   -1.7205901725E+01
   -1.7085903801E+01   -1.6960215932E+01   -1.6829217262E+01   -1.6693543812E+01
   -1.6554134120E+01   -1.6412256778E+01   -1.6269506050E+01   -1.6127751077E+01
   -1.5989027284E+01   -1.5855366609E+01   -1.5728576446E+01   -1.5609993605E+01
   -1.5500254850E+01   -1.5399133632E+01   -1.5305487976E+01   -1.5217345327E+01
   -1.5132120159E+01   -1.5046928257E+01   -1.4958938499E+01   -1.4865696301E+01
   -1.4765364049E+01   -1.4656847374E+01   -1.4539803428E+01   -1.4414550131E+01
   -1.4281909052E+01   -1.4143018535E+01   -1.3999149875E+01   -1.3851550919E+01
   -1.3701331180E+01   -1.3549392603E+01   -1.3396402018E+01   -1.3242796076E+01
   -1.3088807246E+01   -1.2934500185E+01   -1.2779810408E+01   -1.2624580940E+01
   -1.2468596529E+01   -1.2311618387E+01   -1.2153424728E+01   -1.1993862745E+01
   -1.1832914660E+01   -1.1670772449E+01   -1.1508042356E+01   -1.1349442440E+01
   -1.1197259124E+01   -1.1051761932E+01   -1.0913038411E+01   -1.0780670574E+01
   -1.0653421232E+01   -1.0529116601E+01   -1.0404877299E+01   -1.0277779355E+01
   -1.0147212908E+01   -1.0014744301E+01   -9.8821284182E+00   -9.7509544867E+00
   -9.6224659101E+00   -9.4975051087E+00   -9.3765330887E+00   -9.2596911517E+00
   -9.1468839542E+00   -9.0378785354E+00   -8.9324248680E+00   -8.8302563318E+00
   -8.7310961272E+00   -8.6346790414E+00   -8.5407650212E+00   -8.4491461893E+00
   -8.3596489315E+00   -8.2721325489E+00   -8.1864857599E+00   -8.1026220754E+00
   -8.0204748033E+00   -7.9399921832E+00   -7.8611329468E+00   -7.7838624381E+00
   -7.7081493251E+00   -7.6339628643E+00   -7.5612706559E+00   -7.4900368128E+00
   -7.4202204740E+00   -7.3517746040E+00   -7.2846450312E+00   -7.2187701149E+00
   -7.1540853737E+00   -7.0905294225E+00   -7.0280456103E+00   -6.9665830193E+00
   -6.9060973113E+00   -6.8465514238E+00   -6.7879160941E+00   -6.7301701732E+00
   -6.6733006744E+00   -6.6173024892E+00   -6.5621777024E+00   -6.5079344440E+00
   -6.4545852345E+00   -6.4021448136E+00   -6.3506274799E+00   -6.3000440201E+00
   -6.2503983552E+00   -6.2016840666E+00   -6.1538819345E+00   -6.1069012009E+00
   -6.0606340011E+00   -6.0150629124E+00   -5.9701721982E+00   -5.9259467205E+00
   -5.8823717886E+00   -5.8394331421E+00   -5.7971169354E+00   -5.7554097223E+00
   -5.7142984419E+00   -5.6737704049E+00   -5.6338132802E+00   -5.5944150823E+00
   -5.5555641596E+00   -5.5172491823E+00   -5.4794591318E+00   -5.4421832898E+00
   -5.4054112280E+00   -5.3691327987E+00   -5.3333381251E+00   -5.2980175924E+00
   -5.2631618392E+00   -5.2287617490E+00   -5.1948084426E+00   -5.1612932700E+00
   -5.1282078031E+00   -5.0955438291E+00   -5.0632933429E+00   -5.0314485413E+00
   -5.0000018160E+00   -4.9689457480E+00   -4.9382731018E+00   -4.9079768193E+00
   -4.8780500147E+00   -4.8484859693E+00   -4.8192781264E+00   -4.7904200862E+00
   -4.7619056017E+00   -4.7337285735E+00   -4.7058830460E+00   -4.6783632028E+00
   -4.6511633628E+00   -4.6242779765E+00   -4.5977016219E+00   -4.5714290008E+00
   -4.5454549357E+00   -4.5197743661E+00   -4.4943823450E+00   -4.4692740363E+00
   -4.4444447111E+00   -4.4198897452E+00   -4.3956046161E+00   -4.3715849000E+00
   -4.3478262694E+00   -4.3243244903E+00   -4.3010754199E+00   -4.2780750038E+00
   -4.2553192741E+00   -4.2328043467E+00   -4.2105264195E+00   -4.1884817698E+00
   -4.1666667527E+00   -4.1450777985E+00   -4.1237114116E+00   -4.1025641676E+00
   -4.0816327123E+00   -4.0609137596E+00   -4.0404040897E+00   -4.0201005474E+00
   -4.0000000420E+00   -3.9800995409E+00   -3.9603961036E+00   -3.9408867249E+00
   -3.9215686562E+00   -3.9024390509E+00   -3.8834951699E+00   -3.8647343217E+00
   -3.8461538665E+00   -3.8277512148E+00   -3.8095238266E+00   -3.7914692100E+00
   -3.7735849201E+00   -3.7558685579E+00   -3.7383177692E+00   -3.7209302438E+00
   -3.7037037140E+00   -3.6866359542E+00   -3.6697247794E+00   -3.6529680446E+00
   -3.6363636439E+00   -3.6199095092E+00   -3.6036036100E+00   -3.5874439521E+00
   -3.5714285769E+00   -3.5555555607E+00   -3.5398230136E+00   -3.5242290793E+00
   -3.5087719339E+00   -3.4934497855E+00   -3.4782608732E+00   -3.4632034666E+00
   -3.4482758652E+00   -3.4334763978E+00   -3.4188034216E+00   -3.4042553217E+00
   -3.3898305109E+00   -3.3755274284E+00   -3.3613445400E+00   -3.3472803368E+00
   -3.3333333351E+00   -3.3195020776E+00   -3.3057851211E+00   -3.2921811043E+00
   -3.2786885451E+00   -3.2653061192E+00   -3.2520325236E+00   -3.2388663989E+00
   -3.2258064538E+00   -3.2128514077E+00   -3.2000000021E+00   -3.1872509980E+00
   -3.1746031766E+00   -3.1620553379E+00   -3.1496063011E+00   -3.1372549038E+00
   -3.1250000018E+00   -3.1128404687E+00   -3.1007751956E+00   -3.0888030906E+00
   -3.0769230787E+00   -3.0651341014E+00   -3.0534351162E+00   -3.0418250968E+00
   -3.0303030320E+00   -3.0188679262E+00   -3.0075187987E+00   -2.9962546833E+00
   -2.9850746285E+00   -2.9739776968E+00   -2.9629629646E+00   -2.9520295219E+00
   -2.9411764722E+00   -2.9304029320E+00   -2.9197080308E+00   -2.9090909107E+00
   -2.8985507263E+00   -2.8880866442E+00   -2.8776978433E+00   -2.8673835142E+00
   -2.8571428588E+00   -2.8469750906E+00   -2.8368794342E+00   -2.8268551253E+00
   -2.8169014101E+00   -2.8070175455E+00   -2.7972027988E+00   -2.7874564476E+00
   -2.7777777794E+00   -2.7681660916E+00   -2.7586206913E+00   -2.7491408951E+00
   -2.7397260290E+00   -2.7303754283E+00   -2.7210884370E+00   -2.7118644084E+00
   -2.7027027043E+00   -2.6936026952E+00   -2.6845637600E+00   -2.6755852859E+00
   -2.6666666683E+00   -2.6578073106E+00   -2.6490066242E+00   -2.6402640281E+00
   -2.6315789490E+00   -2.6229508213E+00   -2.6143790866E+00   -2.6058631938E+00
   -2.5974025990E+00   -2.5889967654E+00   -2.5806451629E+00   -2.5723472685E+00
   -2.5641025657E+00   -2.5559105448E+00   -2.5477707023E+00   -2.5396825413E+00
   -2.5316455712E+00   -2.5236593076E+00   -2.5157232720E+00   -2.5078369922E+00
   -2.5000000016E+00   -2.4922118396E+00   -2.4844720512E+00   -2.4767801873E+00
   -2.4691358040E+00   -2.4615384631E+00   -2.4539877316E+00   -2.4464831819E+00
   -2.4390243917E+00   -2.4316109437E+00   -2.4242424257E+00   -2.4169184304E+00
   -2.4096385556E+00   -2.4024024038E+00   -2.3952095822E+00   -2.3880597028E+00
   -2.3809523823E+00   -2.3738872417E+00   -2.3668639066E+00   -2.3598820072E+00
   -2.3529411777E+00   -2.3460410569E+00   -2.3391812878E+00   -2.3323615172E+00
   -2.3255813965E+00   -2.3188405809E+00   -2.3121387295E+00   -2.3054755054E+00
   -2.2988505758E+00   -2.2922636114E+00   -2.2857142868E+00   -2.2792022802E+00
   -2.2727272737E+00   -2.2662889529E+00   -2.2598870067E+00   -2.2535211277E+00
   -2.2471910122E+00   -2.2408963595E+00   -2.2346368725E+00   -2.2284122572E+00
   -2.2222222232E+00   -2.2160664830E+00   -2.2099447523E+00   -2.2038567503E+00
   -2.1978021988E+00   -2.1917808229E+00   -2.1857923507E+00   -2.1798365132E+00
   -2.1739130445E+00   -2.1680216812E+00   -2.1621621632E+00   -2.1563342329E+00
   -2.1505376355E+00   -2.1447721190E+00   -2.1390374343E+00   -2.1333333345E+00
   -2.1276595756E+00   -2.1220159163E+00   -2.1164021176E+00   -2.1108179432E+00
   -2.1052631591E+00   -2.0997375341E+00   -2.0942408390E+00   -2.0887728472E+00
   -2.0833333346E+00   -2.0779220792E+00   -2.0725388612E+00   -2.0671834642E+00
   -2.0618556708E+00   -2.0565552710E+00   -2.0512820536E+00   -2.0460358059E+00
   -2.0408163259E+00   -2.0356234143E+00   -2.0304568527E+00   -2.0253164522E+00
   -2.0202020243E+00   -2.0151133546E+00   -2.0100502473E+00   -2.0050125300E+00
   -2.0000000034E+00   -1.9950124689E+00   -1.9900497498E+00   -1.9851116627E+00
   -1.9801980201E+00   -1.9753086418E+00   -1.9704433497E+00   -1.9656019656E+00
   -1.9607843137E+00   -1.9559902200E+00   -1.9512195122E+00   -1.9464720195E+00
   -1.9417475728E+00   -1.9370460048E+00   -1.9323671498E+00   -1.9277108434E+00
   -1.9230769231E+00   -1.9184652278E+00   -1.9138755981E+00   -1.9093078759E+00
   -1.9047619048E+00   -1.9002375297E+00   -1.8957345972E+00   -1.8912529551E+00
   -1.8867924529E+00   -1.8823529412E+00   -1.8779342724E+00   -1.8735362998E+00
   -1.8691588786E+00   -1.8648018649E+00   -1.8604651163E+00   -1.8561484919E+00
   -1.8518518519E+00   -1.8475750578E+00   -1.8433179724E+00   -1.8390804599E+00
   -1.8348623854E+00   -1.8306636156E+00   -1.8264840184E+00   -1.8223234625E+00
   -1.8181818183E+00   -1.8140589570E+00   -1.8099547512E+00   -1.8058690746E+00
   -1.8018018019E+00   -1.7977528091E+00   -1.7937219732E+00   -1.7897091724E+00
   -1.7857142858E+00   -1.7817371939E+00   -1.7777777779E+00   -1.7738359203E+00
   -1.7699115045E+00   -1.7660044151E+00   -1.7621145376E+00   -1.7582417584E+00
   -1.7543859650E+00   -1.7505470461E+00   -1.7467248910E+00   -1.7429193901E+00
   -1.7391304349E+00   -1.7353579177E+00   -1.7316017317E+00   -1.7278617712E+00
   -1.7241379312E+00   -1.7204301077E+00   -1.7167381976E+00   -1.7130620986E+00
   -1.7094017095E+00   -1.7057569298E+00   -1.7021276597E+00   -1.6985138006E+00
   -1.6949152544E+00   -1.6913319240E+00   -1.6877637132E+00   -1.6842105265E+00
   -1.6806722691E+00   -1.6771488471E+00   -1.6736401675E+00   -1.6701461379E+00
   -1.6666666668E+00   -1.6632016634E+00   -1.6597510375E+00   -1.6563147000E+00
   -1.6528925621E+00   -1.6494845362E+00   -1.6460905351E+00   -1.6427104724E+00
   -1.6393442625E+00   -1.6359918202E+00   -1.6326530614E+00   -1.6293279024E+00
   -1.6260162603E+00   -1.6227180529E+00   -1.6194331985E+00   -1.6161616163E+00
   -1.6129032260E+00   -1.6096579479E+00   -1.6064257030E+00   -1.6032064130E+00
   -1.6000000002E+00   -1.5968063874E+00   -1.5936254982E+00   -1.5904572566E+00
   -1.5873015875E+00   -1.5841584160E+00   -1.5810276682E+00   -1.5779092704E+00
   -1.5748031498E+00   -1.5717092340E+00   -1.5686274511E+00   -1.5655577301E+00
   -1.5625000002E+00   -1.5594541912E+00   -1.5564202336E+00   -1.5533980584E+00
   -1.5503875971E+00   -1.5473887816E+00   -1.5444015446E+00   -1.5414258191E+00
   -1.5384615386E+00   -1.5355086374E+00   -1.5325670500E+00   -1.5296367114E+00
   -1.5267175574E+00   -1.5238095240E+00   -1.5209125477E+00   -1.5180265656E+00
   -1.5151515153E+00   -1.5122873348E+00   -1.5094339624E+00   -1.5065913373E+00
   -1.5037593987E+00   -1.5009380865E+00   -1.4981273410E+00   -1.4953271030E+00
   -1.4925373136E+00   -1.4897579145E+00   -1.4869888477E+00   -1.4842300558E+00
   -1.4814814816E+00   -1.4787430686E+00   -1.4760147603E+00   -1.4732965011E+00
   -1.4705882355E+00   -1.4678899084E+00   -1.4652014654E+00   -1.4625228521E+00
   -1.4598540148E+00   -1.4571949000E+00   -1.4545454547E+00   -1.4519056263E+00
   -1.4492753625E+00   -1.4466546114E+00   -1.4440433215E+00   -1.4414414416E+00
   -1.4388489210E+00   -1.4362657093E+00   -1.4336917564E+00   -1.4311270127E+00
   -1.4285714287E+00   -1.4260249556E+00   -1.4234875446E+00   -1.4209591476E+00
   -1.4184397165E+00   -1.4159292037E+00   -1.4134275620E+00   -1.4109347444E+00
   -1.4084507044E+00   -1.4059753956E+00   -1.4035087721E+00   -1.4010507882E+00
   -1.3986013988E+00   -1.3961605586E+00   -1.3937282231E+00   -1.3913043480E+00
   -1.3888888890E+00   -1.3864818026E+00   -1.3840830451E+00   -1.3816925735E+00
   -1.3793103450E+00   -1.3769363168E+00   -1.3745704469E+00   -1.3722126931E+00
   -1.3698630138E+00   -1.3675213677E+00   -1.3651877135E+00   -1.3628620104E+00
   -1.3605442178E+00   -1.3582342956E+00   -1.3559322035E+00   -1.3536379020E+00
   -1.3513513515E+00   -1.3490725128E+00   -1.3468013469E+00   -1.3445378153E+00
   -1.3422818793E+00   -1.3400335010E+00   -1.3377926423E+00   -1.3355592656E+00
   -1.3333333335E+00   -1.3311148088E+00   -1.3289036546E+00   -1.3266998343E+00
   -1.3245033114E+00   -1.3223140497E+00   -1.3201320133E+00   -1.3179571665E+00
   -1.3157894738E+00   -1.3136289000E+00   -1.3114754100E+00   -1.3093289690E+00
   -1.3071895426E+00   -1.3050570964E+00   -1.3029315962E+00   -1.3008130083E+00
   -1.2987012988E+00   -1.2965964345E+00   -1.2944983820E+00   -1.2924071084E+00
   -1.2903225808E+00   -1.2882447666E+00   -1.2861736336E+00   -1.2841091494E+00
   -1.2820512822E+00   -1.2800000001E+00   -1.2779552717E+00   -1.2759170655E+00
   -1.2738853504E+00   -1.2718600955E+00   -1.2698412700E+00   -1.2678288432E+00
   -1.2658227849E+00   -1.2638230649E+00   -1.2618296531E+00   -1.2598425198E+00
   -1.2578616353E+00   -1.2558869703E+00   -1.2539184954E+00   -1.2519561816E+00
   -1.2500000001E+00   -1.2480499221E+00   -1.2461059191E+00   -1.2441679628E+00
   -1.2422360250E+00   -1.2403100776E+00   -1.2383900930E+00   -1.2364760434E+00
   -1.2345679013E+00   -1.2326656396E+00   -1.2307692309E+00   -1.2288786483E+00
   -1.2269938651E+00   -1.2251148546E+00   -1.2232415903E+00   -1.2213740459E+00
   -1.2195121952E+00   -1.2176560123E+00   -1.2158054712E+00   -1.2139605464E+00
   -1.2121212122E+00   -1.2102874434E+00   -1.2084592146E+00   -1.2066365009E+00
   -1.2048192772E+00   -1.2030075189E+00   -1.2012012013E+00   -1.1994002999E+00
   -1.1976047905E+00   -1.1958146488E+00   -1.1940298508E+00   -1.1922503727E+00
   -1.1904761906E+00   -1.1887072809E+00   -1.1869436203E+00   -1.1851851853E+00
   -1.1834319528E+00   -1.1816838997E+00   -1.1799410030E+00   -1.1782032402E+00
   -1.1764705883E+00   -1.1747430251E+00   -1.1730205280E+00   -1.1713030748E+00
   -1.1695906434E+00   -1.1678832118E+00   -1.1661807581E+00   -1.1644832606E+00
   -1.1627906978E+00   -1.1611030480E+00   -1.1594202899E+00   -1.1577424024E+00
   -1.1560693642E+00   -1.1544011545E+00   -1.1527377522E+00   -1.1510791368E+00
   -1.1494252874E+00   -1.1477761837E+00   -1.1461318052E+00   -1.1444921317E+00
   -1.1428571429E+00   -1.1412268189E+00   -1.1396011397E+00   -1.1379800854E+00
   -1.1363636364E+00   -1.1347517731E+00   -1.1331444760E+00   -1.1315417257E+00
   -1.1299435029E+00   -1.1283497885E+00   -1.1267605635E+00   -1.1251758088E+00
   -1.1235955057E+00   -1.1220196354E+00   -1.1204481793E+00   -1.1188811190E+00
   -1.1173184358E+00   -1.1157601117E+00   -1.1142061282E+00   -1.1126564674E+00
   -1.1111111112E+00   -1.1095700417E+00   -1.1080332411E+00   -1.1065006916E+00
   -1.1049723758E+00   -1.1034482759E+00   -1.1019283747E+00   -1.1004126548E+00
   -1.0989010990E+00   -1.0973936901E+00   -1.0958904110E+00   -1.0943912449E+00
   -1.0928961749E+00   -1.0914051842E+00   -1.0899182562E+00   -1.0884353742E+00
   -1.0869565218E+00   -1.0854816826E+00   -1.0840108402E+00   -1.0825439784E+00
   -1.0810810811E+00   -1.0796221323E+00   -1.0781671160E+00   -1.0767160162E+00
   -1.0752688173E+00   -1.0738255034E+00   -1.0723860590E+00   -1.0709504686E+00
   -1.0695187166E+00   -1.0680907878E+00   -1.0666666667E+00   -1.0652463383E+00
   -1.0638297873E+00   -1.0624169987E+00   -1.0610079576E+00   -1.0596026491E+00
   -1.0582010583E+00   -1.0568031705E+00   -1.0554089710E+00   -1.0540184454E+00
   -1.0526315790E+00   -1.0512483575E+00   -1.0498687665E+00   -1.0484927917E+00
   -1.0471204189E+00   -1.0457516340E+00   -1.0443864230E+00   -1.0430247719E+00
   -1.0416666667E+00   -1.0403120937E+00   -1.0389610390E+00   -1.0376134890E+00
   -1.0362694301E+00   -1.0349288487E+00   -1.0335917313E+00   -1.0322580646E+00
   -1.0309278351E+00   -1.0296010297E+00   -1.0282776350E+00   -1.0269576380E+00
   -1.0256410257E+00   -1.0243277849E+00   -1.0230179029E+00   -1.0217113666E+00
   -1.0204081633E+00   -1.0191082803E+00   -1.0178117049E+00   -1.0165184244E+00
   -1.0152284264E+00   -1.0139416984E+00   -1.0126582279E+00   -1.0113780026E+00
   -1.0101010101E+00   -1.0088272384E+00   -1.0075566751E+00   -1.0062893082E+00
   -1.0050251257E+00   -1.0037641155E+00   -1.0025062657E+00   -1.0012515645E+00
   -1.0000000000E+00   -9.9875156059E-01   -9.9750623446E-01   -9.9626401001E-01
   -9.9502487567E-01   -9.9378881992E-01   -9.9255583131E-01   -9.9132589843E-01
   -9.9009900994E-01   -9.8887515455E-01   -9.8765432103E-01   -9.8643649819E-01
   -9.8522167492E-01   -9.8400984014E-01   -9.8280098284E-01   -9.8159509207E-01
   -9.8039215690E-01   -9.7919216650E-01   -9.7799511006E-01   -9.7680097684E-01
   -9.7560975614E-01   -9.7442143731E-01   -9.7323600977E-01   -9.7205346298E-01
   -9.7087378645E-01   -9.6969696974E-01   -9.6852300246E-01   -9.6735187428E-01
   -9.6618357492E-01   -9.6501809413E-01   -9.6385542172E-01   -9.6269554757E-01
   -9.6153846158E-01   -9.6038415370E-01   -9.5923261395E-01   -9.5808383237E-01
   -9.5693779908E-01   -9.5579450422E-01   -9.5465393798E-01   -9.5351609062E-01
   -9.5238095242E-01   -9.5124851371E-01   -9.5011876488E-01   -9.4899169636E-01
   -9.4786729861E-01   -9.4674556216E-01   -9.4562647757E-01   -9.4451003545E-01
   -9.4339622645E-01   -9.4228504126E-01   -9.4117647062E-01   -9.4007050532E-01
   -9.3896713618E-01   -9.3786635408E-01   -9.3676814991E-01   -9.3567251465E-01
   -9.3457943928E-01   -9.3348891485E-01   -9.3240093243E-01   -9.3131548315E-01
   -9.3023255817E-01   -9.2915214869E-01   -9.2807424597E-01   -9.2699884128E-01
   -9.2592592596E-01   -9.2485549136E-01   -9.2378752890E-01   -9.2272203002E-01
   -9.2165898620E-01   -9.2059838898E-01   -9.1954022991E-01   -9.1848450060E-01
   -9.1743119269E-01   -9.1638029785E-01   -9.1533180781E-01   -9.1428571431E-01
   -9.1324200916E-01   -9.1220068418E-01   -9.1116173123E-01   -9.1012514223E-01
   -9.0909090912E-01   -9.0805902386E-01   -9.0702947848E-01   -9.0600226503E-01
   -9.0497737559E-01   -9.0395480229E-01   -9.0293453727E-01   -9.0191657274E-01
   -9.0090090093E-01   -8.9988751409E-01   -8.9887640452E-01   -8.9786756456E-01
   -8.9686098657E-01   -8.9585666296E-01   -8.9485458615E-01   -8.9385474863E-01
   -8.9285714288E-01   -8.9186176145E-01   -8.9086859691E-01   -8.8987764185E-01
   -8.8888888891E-01   -8.8790233077E-01   -8.8691796011E-01   -8.8593576968E-01
   -8.8495575223E-01   -8.8397790057E-01   -8.8300220753E-01   -8.8202866595E-01
   -8.8105726874E-01   -8.8008800882E-01   -8.7912087914E-01   -8.7815587269E-01
   -8.7719298248E-01   -8.7623220155E-01   -8.7527352300E-01   -8.7431693991E-01
   -8.7336244544E-01   -8.7241003274E-01   -8.7145969501E-01   -8.7051142548E-01
   -8.6956521741E-01   -8.6862106408E-01   -8.6767895880E-01   -8.6673889493E-01
   -8.6580086582E-01   -8.6486486488E-01   -8.6393088555E-01   -8.6299892127E-01
   -8.6206896554E-01   -8.6114101186E-01   -8.6021505378E-01   -8.5929108487E-01
   -8.5836909873E-01   -8.5744908898E-01   -8.5653104927E-01   -8.5561497328E-01
   -8.5470085472E-01   -8.5378868732E-01   -8.5287846484E-01   -8.5197018106E-01
   -8.5106382980E-01   -8.5015940491E-01   -8.4925690023E-01   -8.4835630967E-01
   -8.4745762714E-01   -8.4656084658E-01   -8.4566596196E-01   -8.4477296728E-01
   -8.4388185656E-01   -8.4299262383E-01   -8.4210526317E-01   -8.4121976868E-01
   -8.4033613447E-01   -8.3945435468E-01   -8.3857442350E-01   -8.3769633509E-01
   -8.3682008370E-01   -8.3594566355E-01   -8.3507306891E-01   -8.3420229407E-01
   -8.3333333335E-01   -8.3246618108E-01   -8.3160083162E-01   -8.3073727935E-01
   -8.2987551869E-01   -8.2901554406E-01   -8.2815734991E-01   -8.2730093073E-01
   -8.2644628101E-01   -8.2559339527E-01   -8.2474226805E-01   -8.2389289394E-01
   -8.2304526750E-01   -8.2219938336E-01   -8.2135523615E-01   -8.2051282053E-01
   -8.1967213116E-01   -8.1883316276E-01   -8.1799591003E-01   -8.1716036773E-01
   -8.1632653062E-01   -8.1549439349E-01   -8.1466395113E-01   -8.1383519838E-01
   -8.1300813009E-01   -8.1218274113E-01   -8.1135902638E-01   -8.1053698076E-01
   -8.0971659920E-01   -8.0889787665E-01   -8.0808080809E-01   -8.0726538851E-01
   -8.0645161291E-01   -8.0563947635E-01   -8.0482897385E-01   -8.0402010051E-01
   -8.0321285142E-01   -8.0240722168E-01   -8.0160320642E-01   -8.0080080081E-01
   -8.0000000001E-01   -7.9920079921E-01   -7.9840319362E-01   -7.9760717847E-01
   -7.9681274901E-01   -7.9601990051E-01   -7.9522862824E-01   -7.9443892752E-01
   -7.9365079366E-01   -7.9286422201E-01   -7.9207920793E-01   -7.9129574680E-01
   -7.9051383400E-01   -7.8973346497E-01   -7.8895463512E-01   -7.8817733991E-01
   -7.8740157481E-01   -7.8662733531E-01   -7.8585461691E-01   -7.8508341512E-01
   -7.8431372550E-01   -7.8354554359E-01   -7.8277886498E-01   -7.8201368525E-01
   -7.8125000001E-01   -7.8048780489E-01   -7.7972709553E-01   -7.7896786758E-01
   -7.7821011674E-01   -7.7745383869E-01   -7.7669902913E-01   -7.7594568381E-01
   -7.7519379846E-01   -7.7444336884E-01   -7.7369439072E-01   -7.7294685991E-01
   -7.7220077221E-01   -7.7145612344E-01   -7.7071290945E-01   -7.6997112609E-01
   -7.6923076924E-01   -7.6849183478E-01   -7.6775431863E-01   -7.6701821669E-01
   -7.6628352491E-01   -7.6555023924E-01   -7.6481835565E-01   -7.6408787011E-01
   -7.6335877863E-01   -7.6263107722E-01   -7.6190476191E-01   -7.6117982874E-01
   -7.6045627377E-01   -7.5973409307E-01   -7.5901328274E-01   -7.5829383887E-01
   -7.5757575758E-01   -7.5685903501E-01   -7.5614366730E-01   -7.5542965062E-01
   -7.5471698114E-01   -7.5400565505E-01   -7.5329566856E-01   -7.5258701788E-01
   -7.5187969925E-01   -7.5117370893E-01   -7.5046904316E-01   -7.4976569823E-01
   -7.4906367042E-01   -7.4836295604E-01   -7.4766355141E-01   -7.4696545285E-01
   -7.4626865672E-01   -7.4557315937E-01   -7.4487895717E-01   -7.4418604652E-01
   -7.4349442380E-01   -7.4280408543E-01   -7.4211502783E-01   -7.4142724746E-01
   -7.4074074075E-01   -7.4005550417E-01   -7.3937153420E-01   -7.3868882734E-01
   -7.3800738008E-01   -7.3732718894E-01   -7.3664825047E-01   -7.3597056118E-01
   -7.3529411765E-01   -7.3461891644E-01   -7.3394495413E-01   -7.3327222732E-01
   -7.3260073261E-01   -7.3193046661E-01   -7.3126142596E-01   -7.3059360731E-01
   -7.2992700730E-01   -7.2926162261E-01   -7.2859744991E-01   -7.2793448590E-01
   -7.2727272728E-01   -7.2661217076E-01   -7.2595281307E-01   -7.2529465096E-01
   -7.2463768116E-01   -7.2398190046E-01   -7.2332730561E-01   -7.2267389341E-01
   -7.2202166065E-01   -7.2137060415E-01   -7.2072072072E-01   -7.2007200720E-01
   -7.1942446044E-01   -7.1877807727E-01   -7.1813285458E-01   -7.1748878924E-01
   -7.1684587814E-01   -7.1620411818E-01   -7.1556350626E-01   -7.1492403932E-01
   -7.1428571429E-01   -7.1364852810E-01   -7.1301247772E-01   -7.1237756011E-01
   -7.1174377225E-01   -7.1111111111E-01   -7.1047957372E-01   -7.0984915706E-01
   -7.0921985816E-01   -7.0859167405E-01   -7.0796460177E-01   -7.0733863838E-01
   -7.0671378092E-01   -7.0609002648E-01   -7.0546737214E-01   -7.0484581498E-01
   -7.0422535212E-01   -7.0360598065E-01   -7.0298769772E-01   -7.0237050044E-01
   -7.0175438597E-01   -7.0113935145E-01   -7.0052539405E-01   -6.9991251094E-01
   -6.9930069930E-01   -6.9868995633E-01   -6.9808027923E-01   -6.9747166522E-01
   -6.9686411150E-01   -6.9625761532E-01   -6.9565217392E-01   -6.9504778454E-01
   -6.9444444445E-01   -6.9384215091E-01   -6.9324090122E-01   -6.9264069264E-01
   -6.9204152249E-01   -6.9144338807E-01   -6.9084628670E-01   -6.9025021571E-01
   -6.8965517242E-01   -6.8906115418E-01   -6.8846815835E-01   -6.8787618229E-01
   -6.8728522337E-01   -6.8669527897E-01   -6.8610634649E-01   -6.8551842331E-01
   -6.8493150685E-01   -6.8434559453E-01   -6.8376068376E-01   -6.8317677199E-01
   -6.8259385666E-01   -6.8201193521E-01   -6.8143100511E-01   -6.8085106383E-01
   -6.8027210885E-01   -6.7969413764E-01   -6.7911714771E-01   -6.7854113656E-01
   -6.7796610170E-01   -6.7739204065E-01   -6.7681895093E-01   -6.7624683009E-01
   -6.7567567568E-01   -6.7510548523E-01   -6.7453625633E-01   -6.7396798652E-01
   -6.7340067340E-01   -6.7283431455E-01   -6.7226890756E-01   -6.7170445004E-01
   -6.7114093960E-01   -6.7057837385E-01   -6.7001675042E-01   -6.6945606695E-01
   -6.6889632107E-01   -6.6833751044E-01   -6.6777963272E-01   -6.6722268557E-01
   -6.6666666667E-01   -6.6611157369E-01   -6.6555740433E-01   -6.6500415628E-01
   -6.6445182724E-01   -6.6390041494E-01   -6.6334991708E-01   -6.6280033140E-01
   -6.6225165563E-01   -6.6170388751E-01   -6.6115702479E-01   -6.6061106524E-01
   -6.6006600660E-01   -6.5952184666E-01   -6.5897858320E-01   -6.5843621399E-01
   -6.5789473684E-01   -6.5735414955E-01   -6.5681444992E-01   -6.5627563577E-01
   -6.5573770492E-01   -6.5520065520E-01   -6.5466448445E-01   -6.5412919052E-01
   -6.5359477124E-01   -6.5306122449E-01   -6.5252854812E-01   -6.5199674002E-01
   -6.5146579805E-01   -6.5093572010E-01   -6.5040650407E-01   -6.4987814785E-01
  </PP_LOCAL>
 <PP_NONLOCAL>
   <PP_BETA.1
       type="real"
       size="1232"
       columns="4"
       index="1"
       angular_momentum="0"
       cutoff_radius_index=" 136"
       cutoff_radius="    1.3500000000E+00" >
   -8.5666951311E-10    6.9286823059E-02    1.3843195857E-01    2.0729430335E-01
    2.7573391401E-01    3.4361256488E-01    4.1079428002E-01    4.7714583196E-01
    5.4253720033E-01    6.0684198470E-01    6.6993776729E-01    7.3170642205E-01
    7.9203436855E-01    8.5081277000E-01    9.0793767656E-01    9.6331011615E-01
    1.0168361365E+00    1.0684268036E+00    1.1179981615E+00    1.1654711623E+00
    1.2107715720E+00    1.2538298615E+00    1.2945810911E+00    1.3329647970E+00
    1.3689248887E+00    1.4024095647E+00    1.4333712552E+00    1.4617665981E+00
    1.4875564533E+00    1.5107059619E+00    1.5311846505E+00    1.5489665842E+00
    1.5640305648E+00    1.5763603713E+00    1.5859450351E+00    1.5927791412E+00
    1.5968631415E+00    1.5982036667E+00    1.5968138237E+00    1.5927134655E+00
    1.5859294241E+00    1.5764957054E+00    1.5644536441E+00    1.5498520231E+00
    1.5327471604E+00    1.5132029620E+00    1.4912909312E+00    1.4670901208E+00
    1.4406870055E+00    1.4121752499E+00    1.3816553507E+00    1.3492341336E+00
    1.3150240929E+00    1.2791425678E+00    1.2417107543E+00    1.2028525534E+00
    1.1626932550E+00    1.1213580526E+00    1.0789703746E+00    1.0356500095E+00
    9.9151098638E-01    9.4665915847E-01    9.0118941583E-01    8.5518243408E-01
    8.0870083770E-01    7.6178463139E-01    7.1444573011E-01    6.6666141176E-01
    6.1836654653E-01    5.6944453819E-01    5.1976929268E-01    4.7062682105E-01
    4.2241803216E-01    3.7476229967E-01    3.2731931329E-01    2.7988458163E-01
    2.3246665499E-01    1.8532691758E-01    1.3897030951E-01    9.4108737899E-02
    5.1817784377E-02    1.2932145751E-02   -2.1947176022E-02   -5.2434652347E-02
   -7.8397276464E-02   -9.9950861119E-02   -1.1742264403E-01   -1.3129105898E-01
   -1.4211454239E-01   -1.5043717320E-01   -1.5662671754E-01   -1.6096584430E-01
   -1.6370944972E-01   -1.6508451374E-01   -1.6529090352E-01   -1.6450282711E-01
   -1.6287070047E-01   -1.6052326014E-01   -1.5756979637E-01   -1.5410241274E-01
   -1.5019824217E-01   -1.4592156859E-01   -1.4132581865E-01   -1.3645539932E-01
   -1.3134736407E-01   -1.2603289508E-01   -1.2053859143E-01   -1.1488755448E-01
   -1.0910026328E-01   -1.0319523415E-01   -9.7189461133E-02   -9.1098726555E-02
   -8.4938796187E-02   -7.8727060146E-02   -7.2483357587E-02   -6.6230587256E-02
   -5.9995198528E-02   -5.3807572728E-02   -4.7702308073E-02   -4.1718425223E-02
   -3.5899514382E-02   -3.0293849678E-02   -2.4954502264E-02   -1.9939489955E-02
   -1.5312007181E-02   -1.1140783277E-02   -7.5006169366E-03   -4.4731261729E-03
   -2.1477310481E-03   -6.2285702160E-04   -1.1534447290E-05    1.5203238285E-07
    0.0000000000E+00    0.0000000000E+00    0.0000000000E+00    0.0000000000E+00
 0. 0. 0. 0.
 0. 0. 0. 0.
 0. 0. 0. 0.
 0. 0. 0. 0.
 0. 0. 0. 0.
 0. 0. 0. 0.
 0. 0. 0. 0.
 0. 0. 0. 0.
 0. 0. 0. 0.
 0. 0. 0. 0.
 0. 0. 0. 0.
 0. 0. 0. 0.
 0. 0. 0. 0.
 0. 0. 0. 0.
 0. 0. 0. 0.
 0. 0. 0. 0.
 0. 0. 0. 0.
 0. 0. 0. 0.
 0. 0. 0. 0.
 0. 0. 0. 0.
 0. 0. 0. 0.
 0. 0. 0. 0.
 0. 0. 0. 0.
 0. 0. 0. 0.
 0. 0. 0. 0.
 0. 0. 0. 0.
 0. 0. 0. 0.
 0. 0. 0. 0.
 0. 0. 0. 0.
 0. 0. 0. 0.
 0. 0. 0. 0.
 0. 0. 0. 0.
 0. 0. 0. 0.
 0. 0. 0. 0.
 0. 0. 0. 0.
 0. 0. 0. 0.
 0. 0. 0. 0.
 0. 0. 0. 0.
 0. 0. 0. 0.
 0. 0. 0. 0.
 0. 0. 0. 0.
 0. 0. 0. 0.
 0. 0. 0. 0.
 0. 0. 0. 0.
 0. 0. 0. 0.
 0. 0. 0. 0.
 0. 0. 0. 0.
 0. 0. 0. 0.
 0. 0. 0. 0.
 0. 0. 0. 0.
 0. 0. 0. 0.
 0. 0. 0. 0.
 0. 0. 0. 0.
 0. 0. 0. 0.
 0. 0. 0. 0.
 0. 0. 0. 0.
 0. 0. 0. 0.
 0. 0. 0. 0.
 0. 0. 0. 0.
 0. 0. 0. 0.
 0. 0. 0. 0.
 0. 0. 0. 0.
 0. 0. 0. 0.
 0. 0. 0. 0.
 0. 0. 0. 0.
 0. 0. 0. 0.
 0. 0. 0. 0.
 0. 0. 0. 0.
 0. 0. 0. 0.
 0. 0. 0. 0.
 0. 0. 0. 0.
 0. 0. 0. 0.
 0. 0. 0. 0.
 0. 0. 0. 0.
 0. 0. 0. 0.
 0. 0. 0. 0.
 0. 0. 0. 0.
 0. 0. 0. 0.
 0. 0. 0. 0.
 0. 0. 0. 0.
 0. 0. 0. 0.
 0. 0. 0. 0.
 0. 0. 0. 0.
 0. 0. 0. 0.
 0. 0. 0. 0.
 0. 0. 0. 0.
 0. 0. 0. 0.
 0. 0. 0. 0.
 0. 0. 0. 0.
 0. 0. 0. 0.
 0. 0. 0. 0.
 0. 0. 0. 0.
 0. 0. 0. 0.
 0. 0. 0. 0.
 0. 0. 0. 0.
 0. 0. 0. 0.
 0. 0. 0. 0.
 0. 0. 0. 0.
 0. 0. 0. 0.
 0. 0. 0. 0.
 0. 0. 0. 0.
 0. 0. 0. 0.
 0. 0. 0. 0.
 0. 0. 0. 0.
 0. 0. 0. 0.
 0. 0. 0. 0.
 0. 0. 0. 0.
 0. 0. 0. 0.
 0. 0. 0. 0.
 0. 0. 0. 0.
 0. 0. 0. 0.
 0. 0. 0. 0.
 0. 0. 0. 0.
 0. 0. 0. 0.
 0. 0. 0. 0.
 0. 0. 0. 0.
 0. 0. 0. 0.
 0. 0. 0. 0.
 0. 0. 0. 0.
 0. 0. 0. 0.
 0. 0. 0. 0.
 0. 0. 0. 0.
 0. 0. 0. 0.
 0. 0. 0. 0.
 0. 0. 0. 0.
 0. 0. 0. 0.
 0. 0. 0. 0.
 0. 0. 0. 0.
 0. 0. 0. 0.
 0. 0. 0. 0.
 0. 0. 0. 0.
 0. 0. 0. 0.
 0. 0. 0. 0.
 0. 0. 0. 0.
 0. 0. 0. 0.
 0. 0. 0. 0.
 0. 0. 0. 0.
 0. 0. 0. 0.
 0. 0. 0. 0.
 0. 0. 0. 0.
 0. 0. 0. 0.
 0. 0. 0. 0.
 0. 0. 0. 0.
 0. 0. 0. 0.
 0. 0. 0. 0.
 0. 0. 0. 0.
 0. 0. 0. 0.
 0. 0. 0. 0.
 0. 0. 0. 0.
 0. 0. 0. 0.
 0. 0. 0. 0.
 0. 0. 0. 0.
 0. 0. 0. 0.
 0. 0. 0. 0.
 0. 0. 0. 0.
 0. 0. 0. 0.
 0. 0. 0. 0.
 0. 0. 0. 0.
 0. 0. 0. 0.
 0. 0. 0. 0.
 0. 0. 0. 0.
 0. 0. 0. 0.
 0. 0. 0. 0.
 0. 0. 0. 0.
 0. 0. 0. 0.
 0. 0. 0. 0.
 0. 0. 0. 0.
 0. 0. 0. 0.
 0. 0. 0. 0.
 0. 0. 0. 0.
 0. 0. 0. 0.
 0. 0. 0. 0.
 0. 0. 0. 0.
 0. 0. 0. 0.
 0. 0. 0. 0.
 0. 0. 0. 0.
 0. 0. 0. 0.
 0. 0. 0. 0.
 0. 0. 0. 0.
 0. 0. 0. 0.
 0. 0. 0. 0.
 0. 0. 0. 0.
 0. 0. 0. 0.
 0. 0. 0. 0.
 0. 0. 0. 0.
 0. 0. 0. 0.
 0. 0. 0. 0.
 0. 0. 0. 0.
 0. 0. 0. 0.
 0. 0. 0. 0.
 0. 0. 0. 0.
 0. 0. 0. 0.
 0. 0. 0. 0.
 0. 0. 0. 0.
 0. 0. 0. 0.
 0. 0. 0. 0.
 0. 0. 0. 0.
 0. 0. 0. 0.
 0. 0. 0. 0.
 0. 0. 0. 0.
 0. 0. 0. 0.
 0. 0. 0. 0.
 0. 0. 0. 0.
 0. 0. 0. 0.
 0. 0. 0. 0.
 0. 0. 0. 0.
 0. 0. 0. 0.
 0. 0. 0. 0.
 0. 0. 0. 0.
 0. 0. 0. 0.
 0. 0. 0. 0.
 0. 0. 0. 0.
 0. 0. 0. 0.
 0. 0. 0. 0.
 0. 0. 0. 0.
 0. 0. 0. 0.
 0. 0. 0. 0.
 0. 0. 0. 0.
 0. 0. 0. 0.
 0. 0. 0. 0.
 0. 0. 0. 0.
 0. 0. 0. 0.
 0. 0. 0. 0.
 0. 0. 0. 0.
 0. 0. 0. 0.
 0. 0. 0. 0.
 0. 0. 0. 0.
 0. 0. 0. 0.
 0. 0. 0. 0.
 0. 0. 0. 0.
 0. 0. 0. 0.
 0. 0. 0. 0.
 0. 0. 0. 0.
 0. 0. 0. 0.
 0. 0. 0. 0.
 0. 0. 0. 0.
 0. 0. 0. 0.
 0. 0. 0. 0.
 0. 0. 0. 0.
 0. 0. 0. 0.
 0. 0. 0. 0.
 0. 0. 0. 0.
 0. 0. 0. 0.
 0. 0. 0. 0.
 0. 0. 0. 0.
 0. 0. 0. 0.
 0. 0. 0. 0.
 0. 0. 0. 0.
 0. 0. 0. 0.
 0. 0. 0. 0.
 0. 0. 0. 0.
 0. 0. 0. 0.
 0. 0. 0. 0.
 0. 0. 0. 0.
 0. 0. 0. 0.
 0. 0. 0. 0.
 0. 0. 0. 0.
 0. 0. 0. 0.
 0. 0. 0. 0.
 0. 0. 0. 0.
 0. 0. 0. 0.
 0. 0. 0. 0.
 0. 0. 0. 0.
 0. 0. 0. 0.
 0. 0. 0. 0.
 0. 0. 0. 0.
 0. 0. 0. 0.
 0. 0. 0. 0.
 0. 0. 0. 0.
 0. 0. 0. 0.
 0. 0. 0. 0.
 0. 0. 0. 0.
 0. 0. 0. 0.
 0. 0. 0. 0.
   </PP_BETA.1>
   <PP_BETA.2
       type="real"
       size="1232"
       columns="4"
       index="2"
       angular_momentum="0"
       cutoff_radius_index=" 136"
       cutoff_radius="    1.3500000000E+00" >
    4.7474873754E-09   -1.1345696164E-02   -2.2638874422E-02   -3.3828263630E-02
   -4.4865042342E-02   -5.5703955380E-02   -6.6304303972E-02   -7.6630773102E-02
   -8.6654064439E-02   -9.6351308909E-02   -1.0570623949E-01   -1.1470911192E-01
   -1.2335636858E-01   -1.3165004858E-01   -1.3959695503E-01   -1.4720759802E-01
   -1.5449493912E-01   -1.6147297011E-01   -1.6815516426E-01   -1.7455284394E-01
   -1.8067351167E-01   -1.8651919512E-01   -1.9208485727E-01   -1.9735692325E-01
   -2.0231197374E-01   -2.0691565108E-01   -2.1112182010E-01   -2.1487201796E-01
   -2.1809521965E-01   -2.2070793512E-01   -2.2261464249E-01   -2.2370854937E-01
   -2.2387266190E-01   -2.2298112994E-01   -2.2090082927E-01   -2.1749313926E-01
   -2.1261587863E-01   -2.0612537383E-01   -1.9787865084E-01   -1.8773575820E-01
   -1.7556223868E-01   -1.6123176224E-01   -1.4462890809E-01   -1.2565204099E-01
   -1.0421617374E-01   -8.0255659235E-02   -5.3726525879E-02   -2.4608268899E-02
    7.0950614973E-03    4.1354584809E-02    7.8117180019E-02    1.1730694084E-01
    1.5882746035E-01    2.0256489282E-01    2.4839174545E-01    2.9617137581E-01
    3.4576320798E-01    3.9702872656E-01    4.4983835917E-01    5.0407941209E-01
    5.5966528110E-01    6.1654622442E-01    6.7472205939E-01    7.3425723412E-01
    7.9529882509E-01    8.5809810746E-01    9.2303640185E-01    9.9065585204E-01
    1.0616955227E+00    1.1371326736E+00    1.2178787700E+00    1.2955834299E+00
    1.3684405014E+00    1.4395975293E+00    1.5115978571E+00    1.5859092883E+00
    1.6626063664E+00    1.7402897784E+00    1.8162760174E+00    1.8869029215E+00
    1.9467227648E+00    1.9919234118E+00    2.0201234362E+00    2.0301517006E+00
    2.0221485739E+00    1.9974587705E+00    1.9583695565E+00    1.9077597800E+00
    1.8487229102E+00    1.7841003979E+00    1.7157076788E+00    1.6448500516E+00
    1.5726353821E+00    1.4999882413E+00    1.4276663182E+00    1.3562778110E+00
    1.2862988614E+00    1.2180904554E+00    1.1519144218E+00    1.0879482925E+00
    1.0262988873E+00    9.6701455226E-01    9.1009602967E-01    8.5550596940E-01
    8.0317710208E-01    7.5301909992E-01    7.0492414649E-01    6.5877123183E-01
    6.1442918542E-01    5.7175845970E-01    5.3061168175E-01    4.9083421477E-01
    4.5227780661E-01    4.1481881700E-01    3.7836447610E-01    3.4285667577E-01
    3.0827466907E-01    2.7463676539E-01    2.4200111117E-01    2.1046565086E-01
    1.8016737370E-01    1.5128097146E-01    1.2401706272E-01    9.8620175699E-02
    7.5366719267E-02    5.4563200258E-02    3.6544951233E-02    2.1675598752E-02
    1.0347404288E-02    2.9825185839E-03    5.4443278371E-05   -7.2632967713E-07
    0.0000000000E+00    0.0000000000E+00    0.0000000000E+00    0.0000000000E+00
 0. 0. 0. 0.
 0. 0. 0. 0.
 0. 0. 0. 0.
 0. 0. 0. 0.
 0. 0. 0. 0.
 0. 0. 0. 0.
 0. 0. 0. 0.
 0. 0. 0. 0.
 0. 0. 0. 0.
 0. 0. 0. 0.
 0. 0. 0. 0.
 0. 0. 0. 0.
 0. 0. 0. 0.
 0. 0. 0. 0.
 0. 0. 0. 0.
 0. 0. 0. 0.
 0. 0. 0. 0.
 0. 0. 0. 0.
 0. 0. 0. 0.
 0. 0. 0. 0.
 0. 0. 0. 0.
 0. 0. 0. 0.
 0. 0. 0. 0.
 0. 0. 0. 0.
 0. 0. 0. 0.
 0. 0. 0. 0.
 0. 0. 0. 0.
 0. 0. 0. 0.
 0. 0. 0. 0.
 0. 0. 0. 0.
 0. 0. 0. 0.
 0. 0. 0. 0.
 0. 0. 0. 0.
 0. 0. 0. 0.
 0. 0. 0. 0.
 0. 0. 0. 0.
 0. 0. 0. 0.
 0. 0. 0. 0.
 0. 0. 0. 0.
 0. 0. 0. 0.
 0. 0. 0. 0.
 0. 0. 0. 0.
 0. 0. 0. 0.
 0. 0. 0. 0.
 0. 0. 0. 0.
 0. 0. 0. 0.
 0. 0. 0. 0.
 0. 0. 0. 0.
 0. 0. 0. 0.
 0. 0. 0. 0.
 0. 0. 0. 0.
 0. 0. 0. 0.
 0. 0. 0. 0.
 0. 0. 0. 0.
 0. 0. 0. 0.
 0. 0. 0. 0.
 0. 0. 0. 0.
 0. 0. 0. 0.
 0. 0. 0. 0.
 0. 0. 0. 0.
 0. 0. 0. 0.
 0. 0. 0. 0.
 0. 0. 0. 0.
 0. 0. 0. 0.
 0. 0. 0. 0.
 0. 0. 0. 0.
 0. 0. 0. 0.
 0. 0. 0. 0.
 0. 0. 0. 0.
 0. 0. 0. 0.
 0. 0. 0. 0.
 0. 0. 0. 0.
 0. 0. 0. 0.
 0. 0. 0. 0.
 0. 0. 0. 0.
 0. 0. 0. 0.
 0. 0. 0. 0.
 0. 0. 0. 0.
 0. 0. 0. 0.
 0. 0. 0. 0.
 0. 0. 0. 0.
 0. 0. 0. 0.
 0. 0. 0. 0.
 0. 0. 0. 0.
 0. 0. 0. 0.
 0. 0. 0. 0.
 0. 0. 0. 0.
 0. 0. 0. 0.
 0. 0. 0. 0.
 0. 0. 0. 0.
 0. 0. 0. 0.
 0. 0. 0. 0.
 0. 0. 0. 0.
 0. 0. 0. 0.
 0. 0. 0. 0.
 0. 0. 0. 0.
 0. 0. 0. 0.
 0. 0. 0. 0.
 0. 0. 0. 0.
 0. 0. 0. 0.
 0. 0. 0. 0.
 0. 0. 0. 0.
 0. 0. 0. 0.
 0. 0. 0. 0.
 0. 0. 0. 0.
 0. 0. 0. 0.
 0. 0. 0. 0.
 0. 0. 0. 0.
 0. 0. 0. 0.
 0. 0. 0. 0.
 0. 0. 0. 0.
 0. 0. 0. 0.
 0. 0. 0. 0.
 0. 0. 0. 0.
 0. 0. 0. 0.
 0. 0. 0. 0.
 0. 0. 0. 0.
 0. 0. 0. 0.
 0. 0. 0. 0.
 0. 0. 0. 0.
 0. 0. 0. 0.
 0. 0. 0. 0.
 0. 0. 0. 0.
 0. 0. 0. 0.
 0. 0. 0. 0.
 0. 0. 0. 0.
 0. 0. 0. 0.
 0. 0. 0. 0.
 0. 0. 0. 0.
 0. 0. 0. 0.
 0. 0. 0. 0.
 0. 0. 0. 0.
 0. 0. 0. 0.
 0. 0. 0. 0.
 0. 0. 0. 0.
 0. 0. 0. 0.
 0. 0. 0. 0.
 0. 0. 0. 0.
 0. 0. 0. 0.
 0. 0. 0. 0.
 0. 0. 0. 0.
 0. 0. 0. 0.
 0. 0. 0. 0.
 0. 0. 0. 0.
 0. 0. 0. 0.
 0. 0. 0. 0.
 0. 0. 0. 0.
 0. 0. 0. 0.
 0. 0. 0. 0.
 0. 0. 0. 0.
 0. 0. 0. 0.
 0. 0. 0. 0.
 0. 0. 0. 0.
 0. 0. 0. 0.
 0. 0. 0. 0.
 0. 0. 0. 0.
 0. 0. 0. 0.
 0. 0. 0. 0.
 0. 0. 0. 0.
 0. 0. 0. 0.
 0. 0. 0. 0.
 0. 0. 0. 0.
 0. 0. 0. 0.
 0. 0. 0. 0.
 0. 0. 0. 0.
 0. 0. 0. 0.
 0. 0. 0. 0.
 0. 0. 0. 0.
 0. 0. 0. 0.
 0. 0. 0. 0.
 0. 0. 0. 0.
 0. 0. 0. 0.
 0. 0. 0. 0.
 0. 0. 0. 0.
 0. 0. 0. 0.
 0. 0. 0. 0.
 0. 0. 0. 0.
 0. 0. 0. 0.
 0. 0. 0. 0.
 0. 0. 0. 0.
 0. 0. 0. 0.
 0. 0. 0. 0.
 0. 0. 0. 0.
 0. 0. 0. 0.
 0. 0. 0. 0.
 0. 0. 0. 0.
 0. 0. 0. 0.
 0. 0. 0. 0.
 0. 0. 0. 0.
 0. 0. 0. 0.
 0. 0. 0. 0.
 0. 0. 0. 0.
 0. 0. 0. 0.
 0. 0. 0. 0.
 0. 0. 0. 0.
 0. 0. 0. 0.
 0. 0. 0. 0.
 0. 0. 0. 0.
 0. 0. 0. 0.
 0. 0. 0. 0.
 0. 0. 0. 0.
 0. 0. 0. 0.
 0. 0. 0. 0.
 0. 0. 0. 0.
 0. 0. 0. 0.
 0. 0. 0. 0.
 0. 0. 0. 0.
 0. 0. 0. 0.
 0. 0. 0. 0.
 0. 0. 0. 0.
 0. 0. 0. 0.
 0. 0. 0. 0.
 0. 0. 0. 0.
 0. 0. 0. 0.
 0. 0. 0. 0.
 0. 0. 0. 0.
 0. 0. 0. 0.
 0. 0. 0. 0.
 0. 0. 0. 0.
 0. 0. 0. 0.
 0. 0. 0. 0.
 0. 0. 0. 0.
 0. 0. 0. 0.
 0. 0. 0. 0.
 0. 0. 0. 0.
 0. 0. 0. 0.
 0. 0. 0. 0.
 0. 0. 0. 0.
 0. 0. 0. 0.
 0. 0. 0. 0.
 0. 0. 0. 0.
 0. 0. 0. 0.
 0. 0. 0. 0.
 0. 0. 0. 0.
 0. 0. 0. 0.
 0. 0. 0. 0.
 0. 0. 0. 0.
 0. 0. 0. 0.
 0. 0. 0. 0.
 0. 0. 0. 0.
 0. 0. 0. 0.
 0. 0. 0. 0.
 0. 0. 0. 0.
 0. 0. 0. 0.
 0. 0. 0. 0.
 0. 0. 0. 0.
 0. 0. 0. 0.
 0. 0. 0. 0.
 0. 0. 0. 0.
 0. 0. 0. 0.
 0. 0. 0. 0.
 0. 0. 0. 0.
 0. 0. 0. 0.
 0. 0. 0. 0.
 0. 0. 0. 0.
 0. 0. 0. 0.
 0. 0. 0. 0.
 0. 0. 0. 0.
 0. 0. 0. 0.
 0. 0. 0. 0.
 0. 0. 0. 0.
 0. 0. 0. 0.
 0. 0. 0. 0.
 0. 0. 0. 0.
 0. 0. 0. 0.
 0. 0. 0. 0.
 0. 0. 0. 0.
 0. 0. 0. 0.
 0. 0. 0. 0.
 0. 0. 0. 0.
 0. 0. 0. 0.
 0. 0. 0. 0.
 0. 0. 0. 0.
 0. 0. 0. 0.
   </PP_BETA.2>
   <PP_BETA.3
       type="real"
       size="1232"
       columns="4"
       index="3"
       angular_momentum="1"
       cutoff_radius_index=" 136"
       cutoff_radius="    1.3500000000E+00" >
   -3.1288966945E-08    2.1261864067E-03    8.5079277709E-03    1.9154212027E-02
    3.4078178217E-02    5.3294427393E-02    7.6815399820E-02    1.0464695493E-01
    1.3678332177E-01    1.7320161344E-01    2.1385611888E-01    2.5867259745E-01
    3.0754280752E-01    3.6031949730E-01    4.1681207640E-01    4.7678316905E-01
    5.3994622547E-01    6.0596433741E-01    6.7445036805E-01    7.4496846635E-01
    8.1703699263E-01    8.9013283788E-01    9.6369707347E-01    1.0371418248E+00
    1.1098582203E+00    1.1812252314E+00    1.2506191849E+00    1.3174237070E+00
    1.3810398392E+00    1.4408960587E+00    1.4964579366E+00    1.5472371790E+00
    1.5927998131E+00    1.6327733102E+00    1.6668524657E+00    1.6948038917E+00
    1.7164690078E+00    1.7317654402E+00    1.7406867624E+00    1.7433005267E+00
    1.7397445589E+00    1.7302215266E+00    1.7149918483E+00    1.6943650940E+00
    1.6686901294E+00    1.6383443555E+00    1.6037224788E+00    1.5652252909E+00
    1.5232489387E+00    1.4781751226E+00    1.4303625896E+00    1.3801402098E+00
    1.3278018424E+00    1.2736031358E+00    1.2177603586E+00    1.1604513284E+00
    1.1018184878E+00    1.0419741687E+00    9.8100807488E-01    9.1899700740E-01
    8.5601684466E-01    7.9215678393E-01    7.2753584887E-01    6.6232167748E-01
    5.9675162230E-01    5.3115620812E-01    4.6598497519E-01    4.0183463493E-01
    3.3947919979E-01    2.7990129542E-01    2.2403896892E-01    1.6538794948E-01
    1.0300666178E-01    4.0006436343E-02   -2.1012220163E-02   -7.8318879272E-02
   -1.3126385665E-01   -1.8028541008E-01   -2.2670433498E-01   -2.7244169371E-01
   -3.2058001692E-01   -3.7277543039E-01   -4.2950912062E-01   -4.9033820875E-01
   -5.5390908386E-01   -6.1812241277E-01   -6.8039671258E-01   -7.3797389427E-01
   -7.8821741180E-01   -8.2894553699E-01   -8.5894182263E-01   -8.7756480761E-01
   -8.8451667206E-01   -8.7981845346E-01   -8.6378136204E-01   -8.3697538435E-01
   -8.0019608373E-01   -7.5443025975E-01   -7.0082100199E-01   -6.4063260673E-01
   -5.7521578940E-01   -5.0597360688E-01   -4.3432849583E-01   -3.6169083155E-01
   -2.8942941213E-01   -2.1884427010E-01   -1.5114220514E-01   -8.7415412776E-02
   -2.8623554332E-02    2.4420429010E-02    7.1060509728E-02    1.1080422278E-01
    1.4333245890E-01    1.6850804582E-01    1.8637452226E-01    1.9715007541E-01
    2.0121753330E-01    1.9911072022E-01    1.9149756055E-01    1.7916039014E-01
    1.6297400253E-01    1.4388202093E-01    1.2287224514E-01    1.0095167117E-01
    7.9121916990E-02    5.8355803978E-02    3.9575831815E-02    2.3635234652E-02
    1.1302203934E-02    3.2478914915E-03    5.7677427226E-05   -7.9092189587E-07
    0.0000000000E+00    0.0000000000E+00    0.0000000000E+00    0.0000000000E+00
 0. 0. 0. 0.
 0. 0. 0. 0.
 0. 0. 0. 0.
 0. 0. 0. 0.
 0. 0. 0. 0.
 0. 0. 0. 0.
 0. 0. 0. 0.
 0. 0. 0. 0.
 0. 0. 0. 0.
 0. 0. 0. 0.
 0. 0. 0. 0.
 0. 0. 0. 0.
 0. 0. 0. 0.
 0. 0. 0. 0.
 0. 0. 0. 0.
 0. 0. 0. 0.
 0. 0. 0. 0.
 0. 0. 0. 0.
 0. 0. 0. 0.
 0. 0. 0. 0.
 0. 0. 0. 0.
 0. 0. 0. 0.
 0. 0. 0. 0.
 0. 0. 0. 0.
 0. 0. 0. 0.
 0. 0. 0. 0.
 0. 0. 0. 0.
 0. 0. 0. 0.
 0. 0. 0. 0.
 0. 0. 0. 0.
 0. 0. 0. 0.
 0. 0. 0. 0.
 0. 0. 0. 0.
 0. 0. 0. 0.
 0. 0. 0. 0.
 0. 0. 0. 0.
 0. 0. 0. 0.
 0. 0. 0. 0.
 0. 0. 0. 0.
 0. 0. 0. 0.
 0. 0. 0. 0.
 0. 0. 0. 0.
 0. 0. 0. 0.
 0. 0. 0. 0.
 0. 0. 0. 0.
 0. 0. 0. 0.
 0. 0. 0. 0.
 0. 0. 0. 0.
 0. 0. 0. 0.
 0. 0. 0. 0.
 0. 0. 0. 0.
 0. 0. 0. 0.
 0. 0. 0. 0.
 0. 0. 0. 0.
 0. 0. 0. 0.
 0. 0. 0. 0.
 0. 0. 0. 0.
 0. 0. 0. 0.
 0. 0. 0. 0.
 0. 0. 0. 0.
 0. 0. 0. 0.
 0. 0. 0. 0.
 0. 0. 0. 0.
 0. 0. 0. 0.
 0. 0. 0. 0.
 0. 0. 0. 0.
 0. 0. 0. 0.
 0. 0. 0. 0.
 0. 0. 0. 0.
 0. 0. 0. 0.
 0. 0. 0. 0.
 0. 0. 0. 0.
 0. 0. 0. 0.
 0. 0. 0. 0.
 0. 0. 0. 0.
 0. 0. 0. 0.
 0. 0. 0. 0.
 0. 0. 0. 0.
 0. 0. 0. 0.
 0. 0. 0. 0.
 0. 0. 0. 0.
 0. 0. 0. 0.
 0. 0. 0. 0.
 0. 0. 0. 0.
 0. 0. 0. 0.
 0. 0. 0. 0.
 0. 0. 0. 0.
 0. 0. 0. 0.
 0. 0. 0. 0.
 0. 0. 0. 0.
 0. 0. 0. 0.
 0. 0. 0. 0.
 0. 0. 0. 0.
 0. 0. 0. 0.
 0. 0. 0. 0.
 0. 0. 0. 0.
 0. 0. 0. 0.
 0. 0. 0. 0.
 0. 0. 0. 0.
 0. 0. 0. 0.
 0. 0. 0. 0.
 0. 0. 0. 0.
 0. 0. 0. 0.
 0. 0. 0. 0.
 0. 0. 0. 0.
 0. 0. 0. 0.
 0. 0. 0. 0.
 0. 0. 0. 0.
 0. 0. 0. 0.
 0. 0. 0. 0.
 0. 0. 0. 0.
 0. 0. 0. 0.
 0. 0. 0. 0.
 0. 0. 0. 0.
 0. 0. 0. 0.
 0. 0. 0. 0.
 0. 0. 0. 0.
 0. 0. 0. 0.
 0. 0. 0. 0.
 0. 0. 0. 0.
 0. 0. 0. 0.
 0. 0. 0. 0.
 0. 0. 0. 0.
 0. 0. 0. 0.
 0. 0. 0. 0.
 0. 0. 0. 0.
 0. 0. 0. 0.
 0. 0. 0. 0.
 0. 0. 0. 0.
 0. 0. 0. 0.
 0. 0. 0. 0.
 0. 0. 0. 0.
 0. 0. 0. 0.
 0. 0. 0. 0.
 0. 0. 0. 0.
 0. 0. 0. 0.
 0. 0. 0. 0.
 0. 0. 0. 0.
 0. 0. 0. 0.
 0. 0. 0. 0.
 0. 0. 0. 0.
 0. 0. 0. 0.
 0. 0. 0. 0.
 0. 0. 0. 0.
 0. 0. 0. 0.
 0. 0. 0. 0.
 0. 0. 0. 0.
 0. 0. 0. 0.
 0. 0. 0. 0.
 0. 0. 0. 0.
 0. 0. 0. 0.
 0. 0. 0. 0.
 0. 0. 0. 0.
 0. 0. 0. 0.
 0. 0. 0. 0.
 0. 0. 0. 0.
 0. 0. 0. 0.
 0. 0. 0. 0.
 0. 0. 0. 0.
 0. 0. 0. 0.
 0. 0. 0. 0.
 0. 0. 0. 0.
 0. 0. 0. 0.
 0. 0. 0. 0.
 0. 0. 0. 0.
 0. 0. 0. 0.
 0. 0. 0. 0.
 0. 0. 0. 0.
 0. 0. 0. 0.
 0. 0. 0. 0.
 0. 0. 0. 0.
 0. 0. 0. 0.
 0. 0. 0. 0.
 0. 0. 0. 0.
 0. 0. 0. 0.
 0. 0. 0. 0.
 0. 0. 0. 0.
 0. 0. 0. 0.
 0. 0. 0. 0.
 0. 0. 0. 0.
 0. 0. 0. 0.
 0. 0. 0. 0.
 0. 0. 0. 0.
 0. 0. 0. 0.
 0. 0. 0. 0.
 0. 0. 0. 0.
 0. 0. 0. 0.
 0. 0. 0. 0.
 0. 0. 0. 0.
 0. 0. 0. 0.
 0. 0. 0. 0.
 0. 0. 0. 0.
 0. 0. 0. 0.
 0. 0. 0. 0.
 0. 0. 0. 0.
 0. 0. 0. 0.
 0. 0. 0. 0.
 0. 0. 0. 0.
 0. 0. 0. 0.
 0. 0. 0. 0.
 0. 0. 0. 0.
 0. 0. 0. 0.
 0. 0. 0. 0.
 0. 0. 0. 0.
 0. 0. 0. 0.
 0. 0. 0. 0.
 0. 0. 0. 0.
 0. 0. 0. 0.
 0. 0. 0. 0.
 0. 0. 0. 0.
 0. 0. 0. 0.
 0. 0. 0. 0.
 0. 0. 0. 0.
 0. 0. 0. 0.
 0. 0. 0. 0.
 0. 0. 0. 0.
 0. 0. 0. 0.
 0. 0. 0. 0.
 0. 0. 0. 0.
 0. 0. 0. 0.
 0. 0. 0. 0.
 0. 0. 0. 0.
 0. 0. 0. 0.
 0. 0. 0. 0.
 0. 0. 0. 0.
 0. 0. 0. 0.
 0. 0. 0. 0.
 0. 0. 0. 0.
 0. 0. 0. 0.
 0. 0. 0. 0.
 0. 0. 0. 0.
 0. 0. 0. 0.
 0. 0. 0. 0.
 0. 0. 0. 0.
 0. 0. 0. 0.
 0. 0. 0. 0.
 0. 0. 0. 0.
 0. 0. 0. 0.
 0. 0. 0. 0.
 0. 0. 0. 0.
 0. 0. 0. 0.
 0. 0. 0. 0.
 0. 0. 0. 0.
 0. 0. 0. 0.
 0. 0. 0. 0.
 0. 0. 0. 0.
 0. 0. 0. 0.
 0. 0. 0. 0.
 0. 0. 0. 0.
 0. 0. 0. 0.
 0. 0. 0. 0.
 0. 0. 0. 0.
 0. 0. 0. 0.
 0. 0. 0. 0.
 0. 0. 0. 0.
 0. 0. 0. 0.
 0. 0. 0. 0.
 0. 0. 0. 0.
 0. 0. 0. 0.
 0. 0. 0. 0.
 0. 0. 0. 0.
 0. 0. 0. 0.
 0. 0. 0. 0.
 0. 0. 0. 0.
 0. 0. 0. 0.
 0. 0. 0. 0.
 0. 0. 0. 0.
 0. 0. 0. 0.
 0. 0. 0. 0.
 0. 0. 0. 0.
 0. 0. 0. 0.
 0. 0. 0. 0.
 0. 0. 0. 0.
 0. 0. 0. 0.
   </PP_BETA.3>
   <PP_BETA.4
       type="real"
       size="1232"
       columns="4"
       index="4"
       angular_momentum="1"
       cutoff_radius_index=" 136"
       cutoff_radius="    1.3500000000E+00" >
    5.1691358083E-08   -3.0851906855E-04   -1.2497585483E-03   -2.8698364483E-03
   -5.2425547587E-03   -8.4649276728E-03   -1.2651157511E-02   -1.7925285307E-02
   -2.4412794716E-02   -3.2231490249E-02   -4.1482002516E-02   -5.2238292847E-02
   -6.4538536852E-02   -7.8376760604E-02   -9.3695584471E-02   -1.1038039844E-01
   -1.2825525023E-01   -1.4708067448E-01   -1.6655362987E-01   -1.8630964277E-01
   -2.0592718296E-01   -2.2493422224E-01   -2.4281685158E-01   -2.5902976052E-01
   -2.7300831604E-01   -2.8418191851E-01   -2.9198826392E-01   -2.9588810394E-01
   -2.9538007175E-01   -2.9001513221E-01   -2.7941021979E-01   -2.6326064630E-01
   -2.4135089053E-01   -2.1356342052E-01   -1.7988524264E-01   -1.4041191609E-01
   -9.5348815304E-02   -4.5009467025E-02    1.0189160707E-02    6.9734474229E-02
    1.3302913754E-01    1.9940485825E-01    2.6813875143E-01    3.3847178119E-01
    4.0962861766E-01    4.8083813050E-01    5.5135369421E-01    6.2047251093E-01
    6.8755325085E-01    7.5203143949E-01    8.1343215532E-01    8.7137971627E-01
    9.2560411978E-01    9.7594405845E-01    1.0223463709E+00    1.0648618151E+00
    1.1036370829E+00    1.1389030112E+00    1.1709589984E+00    1.2001536970E+00
    1.2268621177E+00    1.2514593433E+00    1.2742910957E+00    1.2956414243E+00
    1.3156977938E+00    1.3345138568E+00    1.3519702435E+00    1.3677338510E+00
    1.3812164725E+00    1.3915341679E+00    1.3978840016E+00    1.4100369606E+00
    1.4290235637E+00    1.4501648019E+00    1.4697568813E+00    1.4854473941E+00
    1.4963950658E+00    1.5031620191E+00    1.5073489942E+00    1.5111720514E+00
    1.5181856525E+00    1.5298493777E+00    1.5460187596E+00    1.5653770203E+00
    1.5855308814E+00    1.6032869375E+00    1.6150316817E+00    1.6171402241E+00
    1.6063529553E+00    1.5801790438E+00    1.5375054321E+00    1.4780566692E+00
    1.4020802009E+00    1.3102994276E+00    1.2038624372E+00    1.0842876203E+00
    9.5340710097E-01    8.1330869124E-01    6.6627700849E-01    5.1473439635E-01
    3.6118231594E-01    2.0814391321E-01    5.8108506588E-02   -8.6521228236E-02
   -2.2347857709E-01   -3.5067780420E-01   -4.6625407569E-01   -5.6859753498E-01
   -6.5638083745E-01   -7.2857953767E-01   -7.8448483348E-01   -8.2371030586E-01
   -8.4621365232E-01   -8.5231817953E-01   -8.4270706326E-01   -8.1840682652E-01
   -7.8076271316E-01   -7.3140660959E-01   -6.7221830342E-01   -6.0528099566E-01
   -5.3283210602E-01   -4.5721052987E-01   -3.8080161659E-01   -3.0598123702E-01
   -2.3506038177E-01   -1.7023177027E-01   -1.1351993786E-01   -6.6736189982E-02
   -3.1439649841E-02   -8.9060933433E-03   -1.5344386759E-04    2.1557762105E-06
    0.0000000000E+00    0.0000000000E+00    0.0000000000E+00    0.0000000000E+00
 0. 0. 0. 0.
 0. 0. 0. 0.
 0. 0. 0. 0.
 0. 0. 0. 0.
 0. 0. 0. 0.
 0. 0. 0. 0.
 0. 0. 0. 0.
 0. 0. 0. 0.
 0. 0. 0. 0.
 0. 0. 0. 0.
 0. 0. 0. 0.
 0. 0. 0. 0.
 0. 0. 0. 0.
 0. 0. 0. 0.
 0. 0. 0. 0.
 0. 0. 0. 0.
 0. 0. 0. 0.
 0. 0. 0. 0.
 0. 0. 0. 0.
 0. 0. 0. 0.
 0. 0. 0. 0.
 0. 0. 0. 0.
 0. 0. 0. 0.
 0. 0. 0. 0.
 0. 0. 0. 0.
 0. 0. 0. 0.
 0. 0. 0. 0.
 0. 0. 0. 0.
 0. 0. 0. 0.
 0. 0. 0. 0.
 0. 0. 0. 0.
 0. 0. 0. 0.
 0. 0. 0. 0.
 0. 0. 0. 0.
 0. 0. 0. 0.
 0. 0. 0. 0.
 0. 0. 0. 0.
 0. 0. 0. 0.
 0. 0. 0. 0.
 0. 0. 0. 0.
 0. 0. 0. 0.
 0. 0. 0. 0.
 0. 0. 0. 0.
 0. 0. 0. 0.
 0. 0. 0. 0.
 0. 0. 0. 0.
 0. 0. 0. 0.
 0. 0. 0. 0.
 0. 0. 0. 0.
 0. 0. 0. 0.
 0. 0. 0. 0.
 0. 0. 0. 0.
 0. 0. 0. 0.
 0. 0. 0. 0.
 0. 0. 0. 0.
 0. 0. 0. 0.
 0. 0. 0. 0.
 0. 0. 0. 0.
 0. 0. 0. 0.
 0. 0. 0. 0.
 0. 0. 0. 0.
 0. 0. 0. 0.
 0. 0. 0. 0.
 0. 0. 0. 0.
 0. 0. 0. 0.
 0. 0. 0. 0.
 0. 0. 0. 0.
 0. 0. 0. 0.
 0. 0. 0. 0.
 0. 0. 0. 0.
 0. 0. 0. 0.
 0. 0. 0. 0.
 0. 0. 0. 0.
 0. 0. 0. 0.
 0. 0. 0. 0.
 0. 0. 0. 0.
 0. 0. 0. 0.
 0. 0. 0. 0.
 0. 0. 0. 0.
 0. 0. 0. 0.
 0. 0. 0. 0.
 0. 0. 0. 0.
 0. 0. 0. 0.
 0. 0. 0. 0.
 0. 0. 0. 0.
 0. 0. 0. 0.
 0. 0. 0. 0.
 0. 0. 0. 0.
 0. 0. 0. 0.
 0. 0. 0. 0.
 0. 0. 0. 0.
 0. 0. 0. 0.
 0. 0. 0. 0.
 0. 0. 0. 0.
 0. 0. 0. 0.
 0. 0. 0. 0.
 0. 0. 0. 0.
 0. 0. 0. 0.
 0. 0. 0. 0.
 0. 0. 0. 0.
 0. 0. 0. 0.
 0. 0. 0. 0.
 0. 0. 0. 0.
 0. 0. 0. 0.
 0. 0. 0. 0.
 0. 0. 0. 0.
 0. 0. 0. 0.
 0. 0. 0. 0.
 0. 0. 0. 0.
 0. 0. 0. 0.
 0. 0. 0. 0.
 0. 0. 0. 0.
 0. 0. 0. 0.
 0. 0. 0. 0.
 0. 0. 0. 0.
 0. 0. 0. 0.
 0. 0. 0. 0.
 0. 0. 0. 0.
 0. 0. 0. 0.
 0. 0. 0. 0.
 0. 0. 0. 0.
 0. 0. 0. 0.
 0. 0. 0. 0.
 0. 0. 0. 0.
 0. 0. 0. 0.
 0. 0. 0. 0.
 0. 0. 0. 0.
 0. 0. 0. 0.
 0. 0. 0. 0.
 0. 0. 0. 0.
 0. 0. 0. 0.
 0. 0. 0. 0.
 0. 0. 0. 0.
 0. 0. 0. 0.
 0. 0. 0. 0.
 0. 0. 0. 0.
 0. 0. 0. 0.
 0. 0. 0. 0.
 0. 0. 0. 0.
 0. 0. 0. 0.
 0. 0. 0. 0.
 0. 0. 0. 0.
 0. 0. 0. 0.
 0. 0. 0. 0.
 0. 0. 0. 0.
 0. 0. 0. 0.
 0. 0. 0. 0.
 0. 0. 0. 0.
 0. 0. 0. 0.
 0. 0. 0. 0.
 0. 0. 0. 0.
 0. 0. 0. 0.
 0. 0. 0. 0.
 0. 0. 0. 0.
 0. 0. 0. 0.
 0. 0. 0. 0.
 0. 0. 0. 0.
 0. 0. 0. 0.
 0. 0. 0. 0.
 0. 0. 0. 0.
 0. 0. 0. 0.
 0. 0. 0. 0.
 0. 0. 0. 0.
 0. 0. 0. 0.
 0. 0. 0. 0.
 0. 0. 0. 0.
 0. 0. 0. 0.
 0. 0. 0. 0.
 0. 0. 0. 0.
 0. 0. 0. 0.
 0. 0. 0. 0.
 0. 0. 0. 0.
 0. 0. 0. 0.
 0. 0. 0. 0.
 0. 0. 0. 0.
 0. 0. 0. 0.
 0. 0. 0. 0.
 0. 0. 0. 0.
 0. 0. 0. 0.
 0. 0. 0. 0.
 0. 0. 0. 0.
 0. 0. 0. 0.
 0. 0. 0. 0.
 0. 0. 0. 0.
 0. 0. 0. 0.
 0. 0. 0. 0.
 0. 0. 0. 0.
 0. 0. 0. 0.
 0. 0. 0. 0.
 0. 0. 0. 0.
 0. 0. 0. 0.
 0. 0. 0. 0.
 0. 0. 0. 0.
 0. 0. 0. 0.
 0. 0. 0. 0.
 0. 0. 0. 0.
 0. 0. 0. 0.
 0. 0. 0. 0.
 0. 0. 0. 0.
 0. 0. 0. 0.
 0. 0. 0. 0.
 0. 0. 0. 0.
 0. 0. 0. 0.
 0. 0. 0. 0.
 0. 0. 0. 0.
 0. 0. 0. 0.
 0. 0. 0. 0.
 0. 0. 0. 0.
 0. 0. 0. 0.
 0. 0. 0. 0.
 0. 0. 0. 0.
 0. 0. 0. 0.
 0. 0. 0. 0.
 0. 0. 0. 0.
 0. 0. 0. 0.
 0. 0. 0. 0.
 0. 0. 0. 0.
 0. 0. 0. 0.
 0. 0. 0. 0.
 0. 0. 0. 0.
 0. 0. 0. 0.
 0. 0. 0. 0.
 0. 0. 0. 0.
 0. 0. 0. 0.
 0. 0. 0. 0.
 0. 0. 0. 0.
 0. 0. 0. 0.
 0. 0. 0. 0.
 0. 0. 0. 0.
 0. 0. 0. 0.
 0. 0. 0. 0.
 0. 0. 0. 0.
 0. 0. 0. 0.
 0. 0. 0. 0.
 0. 0. 0. 0.
 0. 0. 0. 0.
 0. 0. 0. 0.
 0. 0. 0. 0.
 0. 0. 0. 0.
 0. 0. 0. 0.
 0. 0. 0. 0.
 0. 0. 0. 0.
 0. 0. 0. 0.
 0. 0. 0. 0.
 0. 0. 0. 0.
 0. 0. 0. 0.
 0. 0. 0. 0.
 0. 0. 0. 0.
 0. 0. 0. 0.
 0. 0. 0. 0.
 0. 0. 0. 0.
 0. 0. 0. 0.
 0. 0. 0. 0.
 0. 0. 0. 0.
 0. 0. 0. 0.
 0. 0. 0. 0.
 0. 0. 0. 0.
 0. 0. 0. 0.
 0. 0. 0. 0.
 0. 0. 0. 0.
 0. 0. 0. 0.
 0. 0. 0. 0.
 0. 0. 0. 0.
 0. 0. 0. 0.
 0. 0. 0. 0.
 0. 0. 0. 0.
 0. 0. 0. 0.
 0. 0. 0. 0.
 0. 0. 0. 0.
 0. 0. 0. 0.
 0. 0. 0. 0.
 0. 0. 0. 0.
 0. 0. 0. 0.
 0. 0. 0. 0.
   </PP_BETA.4>
   <PP_DIJ type="real"  size="  16" columns="4">
    1.6062683743E+01    0.0000000000E+00    0.0000000000E+00    0.0000000000E+00
    0.0000000000E+00    9.9958819066E-01    0.0000000000E+00    0.0000000000E+00
    0.0000000000E+00    0.0000000000E+00   -5.7355876739E+00    0.0000000000E+00
    0.0000000000E+00    0.0000000000E+00    0.0000000000E+00   -1.1247599378E+00
   </PP_DIJ>
 </PP_NONLOCAL>
 <PP_PSWFC>
   <PP_CHI.1
       type="real"
       size="1232"
       columns="4"
       index="1"
       occupation=" 2.000"
       pseudo_energy="   -0.1063556175E+01"
       label="2S"
       l="0" >
    4.0172240534E-12    3.2867237921E-03    6.5871574002E-03    9.9149611712E-03
    1.3283696723E-02    1.6706778096E-02    2.0197423531E-02    2.3768608061E-02
    2.7433017124E-02    3.1203001390E-02    3.5090532981E-02    3.9107163265E-02
    4.3263982403E-02    4.7571580800E-02    5.2040012614E-02    5.6678761479E-02
    6.1496708549E-02    6.6502103003E-02    7.1702535114E-02    7.7104911964E-02
    8.2715435908E-02    8.8539585833E-02    9.4582101290E-02    1.0084696952E-01
    1.0733741540E-01    1.1405589437E-01    1.2100408826E-01    1.2818290409E-01
    1.3559247570E-01    1.4323216838E-01    1.5110058615E-01    1.5919558192E-01
    1.6751427024E-01    1.7605304269E-01    1.8480758571E-01    1.9377290085E-01
    2.0294332723E-01    2.1231256621E-01    2.2187370798E-01    2.3161926006E-01
    2.4154117754E-01    2.5163089477E-01    2.6187935859E-01    2.7227706271E-01
    2.8281408321E-01    2.9348011494E-01    3.0426450868E-01    3.1515630885E-01
    3.2614429163E-01    3.3721700342E-01    3.4836279922E-01    3.5956988106E-01
    3.7082633619E-01    3.8212017476E-01    3.9343936713E-01    4.0477188037E-01
    4.1610571401E-01    4.2742893486E-01    4.3872971068E-01    4.4999634277E-01
    4.6121729721E-01    4.7238123473E-01    4.8347703911E-01    4.9449384404E-01
    5.0542105833E-01    5.1624838942E-01    5.2696586525E-01    5.3756385421E-01
    5.4803308340E-01    5.5836465497E-01    5.6855006068E-01    5.7858119460E-01
    5.8845036390E-01    5.9815029789E-01    6.0767415520E-01    6.1701552924E-01
    6.2616845184E-01    6.3512739528E-01    6.4388727263E-01    6.5244343653E-01
    6.6079167644E-01    6.6892821451E-01    6.7684969996E-01    6.8455320235E-01
    6.9203620345E-01    6.9929658816E-01    7.0633263434E-01    7.1314300166E-01
    7.1972671970E-01    7.2608317523E-01    7.3221209886E-01    7.3811355114E-01
    7.4378790815E-01    7.4923584676E-01    7.5445832950E-01    7.5945658935E-01
    7.6423211426E-01    7.6878663174E-01    7.7312209336E-01    7.7724065941E-01
    7.8114468370E-01    7.8483669855E-01    7.8831940005E-01    7.9159563367E-01
    7.9466838018E-01    7.9754074202E-01    8.0021593002E-01    8.0269725074E-01
    8.0498809407E-01    8.0709192155E-01    8.0901225504E-01    8.1075266603E-01
    8.1231676539E-01    8.1370819374E-01    8.1493061224E-01    8.1598769398E-01
    8.1688311587E-01    8.1762055100E-01    8.1820366151E-01    8.1863609190E-01
    8.1892146286E-01    8.1906336543E-01    8.1906535569E-01    8.1893094981E-01
    8.1866361941E-01    8.1826678743E-01    8.1774382423E-01    8.1709804407E-01
    8.1633270196E-01    8.1545099077E-01    8.1445603863E-01    8.1335090733E-01
    8.1213859946E-01    8.1082206937E-01    8.0940422388E-01    8.0788792179E-01
    8.0627597359E-01    8.0457114117E-01    8.0277613768E-01    8.0089362754E-01
    7.9892622650E-01    7.9687650179E-01    7.9474697237E-01    7.9254010921E-01
    7.9025833569E-01    7.8790402795E-01    7.8547951537E-01    7.8298708104E-01
    7.8042896222E-01    7.7780735091E-01    7.7512439435E-01    7.7238219560E-01
    7.6958281410E-01    7.6672826621E-01    7.6382052584E-01    7.6086152502E-01
    7.5785315445E-01    7.5479726420E-01    7.5169566418E-01    7.4855012485E-01
    7.4536237777E-01    7.4213411622E-01    7.3886699579E-01    7.3556263501E-01
    7.3222261591E-01    7.2884848467E-01    7.2544175218E-01    7.2200389466E-01
    7.1853635421E-01    7.1504053947E-01    7.1151782612E-01    7.0796955753E-01
    7.0439704528E-01    7.0080156979E-01    6.9718438080E-01    6.9354669803E-01
    6.8988971165E-01    6.8621458287E-01    6.8252244447E-01    6.7881440134E-01
    6.7509153099E-01    6.7135488411E-01    6.6760548506E-01    6.6384433236E-01
    6.6007239925E-01    6.5629063413E-01    6.5249996106E-01    6.4870128029E-01
    6.4489546865E-01    6.4108338010E-01    6.3726584615E-01    6.3344367630E-01
    6.2961765852E-01    6.2578855968E-01    6.2195712598E-01    6.1812408336E-01
    6.1429013794E-01    6.1045597644E-01    6.0662226656E-01    6.0278965738E-01
    5.9895877978E-01    5.9513024679E-01    5.9130465400E-01    5.8748257993E-01
    5.8366458634E-01    5.7985121864E-01    5.7604300624E-01    5.7224046289E-01
    5.6844408701E-01    5.6465436203E-01    5.6087175673E-01    5.5709672555E-01
    5.5332970887E-01    5.4957113339E-01    5.4582141239E-01    5.4208094602E-01
    5.3835012161E-01    5.3462931396E-01    5.3091888561E-01    5.2721918712E-01
    5.2353055734E-01    5.1985332368E-01    5.1618780234E-01    5.1253429862E-01
    5.0889310712E-01    5.0526451201E-01    5.0164878726E-01    4.9804619689E-01
    4.9445699517E-01    4.9088142689E-01    4.8731972753E-01    4.8377212353E-01
    4.8023883246E-01    4.7672006326E-01    4.7321601640E-01    4.6972688415E-01
    4.6625285071E-01    4.6279409243E-01    4.5935077800E-01    4.5592306864E-01
    4.5251111825E-01    4.4911507364E-01    4.4573507463E-01    4.4237125430E-01
    4.3902373910E-01    4.3569264903E-01    4.3237809781E-01    4.2908019302E-01
    4.2579903625E-01    4.2253472327E-01    4.1928734419E-01    4.1605698354E-01
    4.1284372048E-01    4.0964762889E-01    4.0646877755E-01    4.0330723022E-01
    4.0016304582E-01    3.9703627852E-01    3.9392697789E-01    3.9083518900E-01
    3.8776095255E-01    3.8470430500E-01    3.8166527866E-01    3.7864390182E-01
    3.7564019883E-01    3.7265419027E-01    3.6968589299E-01    3.6673532025E-01
    3.6380248179E-01    3.6088738398E-01    3.5799002986E-01    3.5511041929E-01
    3.5224854897E-01    3.4940441262E-01    3.4657800100E-01    3.4376930203E-01
    3.4097830086E-01    3.3820497997E-01    3.3544931924E-01    3.3271129603E-01
    3.2999088526E-01    3.2728805950E-01    3.2460278903E-01    3.2193504192E-01
    3.1928478411E-01    3.1665197944E-01    3.1403658979E-01    3.1143857510E-01
    3.0885789343E-01    3.0629450107E-01    3.0374835255E-01    3.0121940074E-01
    2.9870759691E-01    2.9621289077E-01    2.9373523053E-01    2.9127456299E-01
    2.8883083355E-01    2.8640398630E-01    2.8399396407E-01    2.8160070846E-01
    2.7922415991E-01    2.7686425776E-01    2.7452094027E-01    2.7219414470E-01
    2.6988380732E-01    2.6758986350E-01    2.6531224773E-01    2.6305089366E-01
    2.6080573416E-01    2.5857670134E-01    2.5636372662E-01    2.5416674072E-01
    2.5198567378E-01    2.4982045531E-01    2.4767101428E-01    2.4553727915E-01
    2.4341917787E-01    2.4131663796E-01    2.3922958653E-01    2.3715795028E-01
    2.3510165556E-01    2.3306062841E-01    2.3103479454E-01    2.2902407941E-01
    2.2702840823E-01    2.2504770599E-01    2.2308189746E-01    2.2113090725E-01
    2.1919465983E-01    2.1727307952E-01    2.1536609050E-01    2.1347361690E-01
    2.1159558274E-01    2.0973191197E-01    2.0788252850E-01    2.0604735620E-01
    2.0422631891E-01    2.0241934046E-01    2.0062634466E-01    1.9884725533E-01
    1.9708199630E-01    1.9533049141E-01    1.9359266453E-01    1.9186843954E-01
    1.9015774036E-01    1.8846049093E-01    1.8677661522E-01    1.8510603724E-01
    1.8344868101E-01    1.8180447059E-01    1.8017333007E-01    1.7855518355E-01
    1.7694995515E-01    1.7535756901E-01    1.7377794926E-01    1.7221102007E-01
    1.7065670557E-01    1.6911492990E-01    1.6758561718E-01    1.6606869153E-01
    1.6456407703E-01    1.6307169772E-01    1.6159147762E-01    1.6012334071E-01
    1.5866721091E-01    1.5722301212E-01    1.5579066815E-01    1.5437010279E-01
    1.5296123977E-01    1.5156400274E-01    1.5017831533E-01    1.4880410110E-01
    1.4744128357E-01    1.4608978623E-01    1.4474953250E-01    1.4342044582E-01
    1.4210244960E-01    1.4079546725E-01    1.3949942219E-01    1.3821423789E-01
    1.3693983788E-01    1.3567614576E-01    1.3442308526E-01    1.3318058022E-01
    1.3194855468E-01    1.3072693290E-01    1.2951563937E-01    1.2831459891E-01
    1.2712373668E-01    1.2594297825E-01    1.2477224967E-01    1.2361147752E-01
    1.2246058899E-01    1.2131951195E-01    1.2018817506E-01    1.1906650780E-01
    1.1795444063E-01    1.1685190503E-01    1.1575883358E-01    1.1467516019E-01
    1.1360082019E-01    1.1253574999E-01    1.1147988636E-01    1.1043316617E-01
    1.0939552630E-01    1.0836690369E-01    1.0734723532E-01    1.0633645822E-01
    1.0533450955E-01    1.0434132652E-01    1.0335684644E-01    1.0238100677E-01
    1.0141374504E-01    1.0045499895E-01    9.9504706320E-02    9.8562805131E-02
    9.7629233515E-02    9.6703929772E-02    9.5786832377E-02    9.4877879989E-02
    9.3977011453E-02    9.3084165816E-02    9.2199282327E-02    9.1322300447E-02
    9.0453159853E-02    8.9591800448E-02    8.8738162364E-02    8.7892185968E-02
    8.7053811870E-02    8.6222980923E-02    8.5399634235E-02    8.4583713168E-02
    8.3775159345E-02    8.2973914656E-02    8.2179921257E-02    8.1393121580E-02
    8.0613458334E-02    7.9840874508E-02    7.9075313375E-02    7.8316718497E-02
    7.7565033723E-02    7.6820203200E-02    7.6082171367E-02    7.5350882964E-02
    7.4626283031E-02    7.3908316914E-02    7.3196930260E-02    7.2492069027E-02
    7.1793679482E-02    7.1101708202E-02    7.0416102077E-02    6.9736808311E-02
    6.9063774425E-02    6.8396948255E-02    6.7736277956E-02    6.7081712001E-02
    6.6433199184E-02    6.5790688619E-02    6.5154129740E-02    6.4523472307E-02
    6.3898666398E-02    6.3279662416E-02    6.2666411087E-02    6.2058863462E-02
    6.1456970914E-02    6.0860685140E-02    6.0269958161E-02    5.9684742323E-02
    5.9104990295E-02    5.8530655069E-02    5.7961689961E-02    5.7398048609E-02
    5.6839684977E-02    5.6286553347E-02    5.5738608325E-02    5.5195804839E-02
    5.4658098135E-02    5.4125443782E-02    5.3597797667E-02    5.3075115995E-02
    5.2557355289E-02    5.2044472391E-02    5.1536424457E-02    5.1033168959E-02
    5.0534663684E-02    5.0040866730E-02    4.9551736510E-02    4.9067231747E-02
    4.8587311475E-02    4.8111935036E-02    4.7641062081E-02    4.7174652566E-02
    4.6712666756E-02    4.6255065216E-02    4.5801808818E-02    4.5352858734E-02
    4.4908176436E-02    4.4467723696E-02    4.4031462584E-02    4.3599355466E-02
    4.3171365003E-02    4.2747454151E-02    4.2327586158E-02    4.1911724560E-02
    4.1499833187E-02    4.1091876154E-02    4.0687817862E-02    4.0287623000E-02
    3.9891256538E-02    3.9498683727E-02    3.9109870102E-02    3.8724781475E-02
    3.8343383934E-02    3.7965643844E-02    3.7591527846E-02    3.7221002851E-02
    3.6854036042E-02    3.6490594872E-02    3.6130647061E-02    3.5774160596E-02
    3.5421103729E-02    3.5071444974E-02    3.4725153107E-02    3.4382197165E-02
    3.4042546441E-02    3.3706170486E-02    3.3373039106E-02    3.3043122361E-02
    3.2716390561E-02    3.2392814267E-02    3.2072364289E-02    3.1755011683E-02
    3.1440727751E-02    3.1129484039E-02    3.0821252333E-02    3.0516004661E-02
    3.0213713289E-02    2.9914350721E-02    2.9617889695E-02    2.9324303184E-02
    2.9033564394E-02    2.8745646758E-02    2.8460523943E-02    2.8178169840E-02
    2.7898558566E-02    2.7621664463E-02    2.7347462096E-02    2.7075926250E-02
    2.6807031929E-02    2.6540754357E-02    2.6277068972E-02    2.6015951427E-02
    2.5757377589E-02    2.5501323535E-02    2.5247765554E-02    2.4996680142E-02
    2.4748044001E-02    2.4501834040E-02    2.4258027371E-02    2.4016601308E-02
    2.3777533365E-02    2.3540801258E-02    2.3306382897E-02    2.3074256390E-02
    2.2844400040E-02    2.2616792341E-02    2.2391411981E-02    2.2168237837E-02
    2.1947248975E-02    2.1728424648E-02    2.1511744295E-02    2.1297187538E-02
    2.1084734184E-02    2.0874364219E-02    2.0666057811E-02    2.0459795305E-02
    2.0255557225E-02    2.0053324268E-02    1.9853077308E-02    1.9654797390E-02
    1.9458465730E-02    1.9264063718E-02    1.9071572907E-02    1.8880975022E-02
    1.8692251952E-02    1.8505385751E-02    1.8320358637E-02    1.8137152989E-02
    1.7955751346E-02    1.7776136409E-02    1.7598291034E-02    1.7422198236E-02
    1.7247841184E-02    1.7075203203E-02    1.6904267768E-02    1.6735018508E-02
    1.6567439202E-02    1.6401513776E-02    1.6237226308E-02    1.6074561018E-02
    1.5913502274E-02    1.5754034589E-02    1.5596142615E-02    1.5439811150E-02
    1.5285025131E-02    1.5131769633E-02    1.4980029871E-02    1.4829791196E-02
    1.4681039096E-02    1.4533759191E-02    1.4387937238E-02    1.4243559124E-02
    1.4100610868E-02    1.3959078618E-02    1.3818948653E-02    1.3680207379E-02
    1.3542841328E-02    1.3406837158E-02    1.3272181653E-02    1.3138861719E-02
    1.3006864384E-02    1.2876176799E-02    1.2746786235E-02    1.2618680081E-02
    1.2491845845E-02    1.2366271152E-02    1.2241943744E-02    1.2118851478E-02
    1.1996982324E-02    1.1876324366E-02    1.1756865800E-02    1.1638594933E-02
    1.1521500183E-02    1.1405570075E-02    1.1290793246E-02    1.1177158437E-02
    1.1064654496E-02    1.0953270377E-02    1.0842995139E-02    1.0733817943E-02
    1.0625728054E-02    1.0518714837E-02    1.0412767760E-02    1.0307876390E-02
    1.0204030391E-02    1.0101219529E-02    9.9994336631E-03    9.8986627519E-03
    9.7988968480E-03    9.7001260988E-03    9.6023407458E-03    9.5055311232E-03
    9.4096876572E-03    9.3148008654E-03    9.2208613560E-03    9.1278598264E-03
    9.0357870632E-03    8.9446339407E-03    8.8543914208E-03    8.7650505514E-03
    8.6766024661E-03    8.5890383836E-03    8.5023496065E-03    8.4165275207E-03
    8.3315635946E-03    8.2474493786E-03    8.1641765039E-03    8.0817366821E-03
    8.0001217046E-03    7.9193234412E-03    7.8393338401E-03    7.7601449270E-03
    7.6817488041E-03    7.6041376495E-03    7.5273037168E-03    7.4512393342E-03
    7.3759369037E-03    7.3013889005E-03    7.2275878724E-03    7.1545264391E-03
    7.0821972915E-03    7.0105931911E-03    6.9397069692E-03    6.8695315265E-03
    6.8000598321E-03    6.7312849232E-03    6.6631999045E-03    6.5957979472E-03
    6.5290722886E-03    6.4630162317E-03    6.3976231441E-03    6.3328864578E-03
    6.2687996686E-03    6.2053563352E-03    6.1425500788E-03    6.0803745825E-03
    6.0188235909E-03    5.9578909092E-03    5.8975704027E-03    5.8378559965E-03
    5.7787416747E-03    5.7202214799E-03    5.6622895126E-03    5.6049399308E-03
    5.5481669493E-03    5.4919648394E-03    5.4363279280E-03    5.3812505974E-03
    5.3267272846E-03    5.2727524809E-03    5.2193207313E-03    5.1664266341E-03
    5.1140648402E-03    5.0622300529E-03    5.0109170271E-03    4.9601205690E-03
    4.9098355354E-03    4.8600568337E-03    4.8107794209E-03    4.7619983032E-03
    4.7137085360E-03    4.6659052228E-03    4.6185835152E-03    4.5717386122E-03
    4.5253657599E-03    4.4794602510E-03    4.4340174243E-03    4.3890326643E-03
    4.3445014007E-03    4.3004191081E-03    4.2567813057E-03    4.2135835563E-03
    4.1708214666E-03    4.1284906863E-03    4.0865869079E-03    4.0451058660E-03
    4.0040433376E-03    3.9633951408E-03    3.9231571349E-03    3.8833252201E-03
    3.8438953368E-03    3.8048634655E-03    3.7662256260E-03    3.7279778776E-03
    3.6901163182E-03    3.6526370844E-03    3.6155363505E-03    3.5788103288E-03
    3.5424552688E-03    3.5064674572E-03    3.4708432171E-03    3.4355789079E-03
    3.4006709251E-03    3.3661156997E-03    3.3319096977E-03    3.2980494205E-03
    3.2645314036E-03    3.2313522170E-03    3.1985084645E-03    3.1659967836E-03
    3.1338138447E-03    3.1019563516E-03    3.0704210403E-03    3.0392046795E-03
    3.0083040694E-03    2.9777160423E-03    2.9474374617E-03    2.9174652221E-03
    2.8877962488E-03    2.8584274977E-03    2.8293559546E-03    2.8005786354E-03
    2.7720925855E-03    2.7438948797E-03    2.7159826216E-03    2.6883529436E-03
    2.6610030068E-03    2.6339300001E-03    2.6071311407E-03    2.5806036729E-03
    2.5543448690E-03    2.5283520278E-03    2.5026224754E-03    2.4771535642E-03
    2.4519426730E-03    2.4269872066E-03    2.4022845957E-03    2.3778322964E-03
    2.3536277902E-03    2.3296685837E-03    2.3059522083E-03    2.2824762198E-03
    2.2592381985E-03    2.2362357486E-03    2.2134664985E-03    2.1909280999E-03
    2.1686182280E-03    2.1465345811E-03    2.1246748806E-03    2.1030368704E-03
    2.0816183169E-03    2.0604170091E-03    2.0394307575E-03    2.0186573949E-03
    1.9980947756E-03    1.9777407751E-03    1.9575932903E-03    1.9376502390E-03
    1.9179095599E-03    1.8983692121E-03    1.8790271752E-03    1.8598814490E-03
    1.8409300532E-03    1.8221710272E-03    1.8036024303E-03    1.7852223408E-03
    1.7670288564E-03    1.7490200939E-03    1.7311941887E-03    1.7135492951E-03
    1.6960835857E-03    1.6787952513E-03    1.6616825011E-03    1.6447435618E-03
    1.6279766783E-03    1.6113801126E-03    1.5949521444E-03    1.5786910706E-03
    1.5625952051E-03    1.5466628786E-03    1.5308924386E-03    1.5152822493E-03
    1.4998306909E-03    1.4845361603E-03    1.4693970701E-03    1.4544118490E-03
    1.4395789414E-03    1.4248968071E-03    1.4103639218E-03    1.3959787761E-03
    1.3817398757E-03    1.3676457417E-03    1.3536949096E-03    1.3398859299E-03
    1.3262173673E-03    1.3126878014E-03    1.2992958255E-03    1.2860400475E-03
    1.2729190889E-03    1.2599315854E-03    1.2470761861E-03    1.2343515538E-03
    1.2217563646E-03    1.2092893082E-03    1.1969490872E-03    1.1847344173E-03
    1.1726440272E-03    1.1606766582E-03    1.1488310643E-03    1.1371060123E-03
    1.1255002809E-03    1.1140126616E-03    1.1026419576E-03    1.0913869846E-03
    1.0802465697E-03    1.0692195523E-03    1.0583047830E-03    1.0475011244E-03
    1.0368074503E-03    1.0262226459E-03    1.0157456075E-03    1.0053752428E-03
    9.9511047020E-04    9.8495021914E-04    9.7489342981E-04    9.6493905309E-04
    9.5508605041E-04    9.4533339367E-04    9.3568006511E-04    9.2612505727E-04
    9.1666737279E-04    9.0730602439E-04    8.9804003474E-04    8.8886843636E-04
    8.7979027152E-04    8.7080459215E-04    8.6191045973E-04    8.5310694523E-04
    8.4439312895E-04    8.3576810051E-04    8.2723095869E-04    8.1878081135E-04
    8.1041677538E-04    8.0213797657E-04    7.9394354952E-04    7.8583263758E-04
    7.7780439274E-04    7.6985797554E-04    7.6199255503E-04    7.5420730860E-04
    7.4650142199E-04    7.3887408914E-04    7.3132451212E-04    7.2385190110E-04
    7.1645547418E-04    7.0913445739E-04    7.0188808456E-04    6.9471559729E-04
    6.8761624482E-04    6.8058928398E-04    6.7363397911E-04    6.6674960199E-04
    6.5993543176E-04    6.5319075484E-04    6.4651486489E-04    6.3990706268E-04
    6.3336665607E-04    6.2689295991E-04    6.2048529598E-04    6.1414299293E-04
    6.0786538618E-04    6.0165181790E-04    5.9550163690E-04    5.8941419858E-04
    5.8338886485E-04    5.7742500410E-04    5.7152199111E-04    5.6567920696E-04
    5.5989603903E-04    5.5417188087E-04    5.4850613221E-04    5.4289819880E-04
    5.3734749247E-04    5.3185343095E-04    5.2641543790E-04    5.2103294281E-04
    5.1570538095E-04    5.1043219330E-04    5.0521282650E-04    5.0004673282E-04
    4.9493337005E-04    4.8987220149E-04    4.8486269589E-04    4.7990432735E-04
    4.7499657532E-04    4.7013892454E-04    4.6533086494E-04    4.6057189164E-04
    4.5586150487E-04    4.5119920994E-04    4.4658451717E-04    4.4201694182E-04
    4.3749600411E-04    4.3302122908E-04    4.2859214662E-04    4.2420829138E-04
    4.1986920272E-04    4.1557442467E-04    4.1132350591E-04    4.0711599967E-04
    4.0295146372E-04    3.9882946034E-04    3.9474955621E-04    3.9071132245E-04
    3.8671433449E-04    3.8275817211E-04    3.7884241932E-04    3.7496666438E-04
    3.7113049971E-04    3.6733352187E-04    3.6357533153E-04    3.5985553340E-04
    3.5617373620E-04    3.5252955264E-04    3.4892259935E-04    3.4535249685E-04
    3.4181886952E-04    3.3832134557E-04    3.3485955695E-04    3.3143313937E-04
    3.2804173225E-04    3.2468497866E-04    3.2136252529E-04    3.1807402244E-04
    3.1481912394E-04    3.1159748714E-04    3.0840877290E-04    3.0525264549E-04
    3.0212877262E-04    2.9903682535E-04    2.9597647811E-04    2.9294740862E-04
    2.8994929788E-04    2.8698183014E-04    2.8404469286E-04    2.8113757666E-04
    2.7826017533E-04    2.7541218575E-04    2.7259330790E-04    2.6980324481E-04
    2.6704170251E-04    2.6430839004E-04    2.6160301939E-04    2.5892530549E-04
    2.5627496615E-04    2.5365172207E-04    2.5105529678E-04    2.4848541662E-04
    2.4594181072E-04    2.4342421097E-04    2.4093235197E-04    2.3846597105E-04
    2.3602480818E-04    2.3360860599E-04    2.3121710975E-04    2.2885006728E-04
    2.2650722900E-04    2.2418834785E-04    2.2189317930E-04    2.1962148131E-04
    2.1737301428E-04    2.1514754107E-04    2.1294482695E-04    2.1076463958E-04
    2.0860674898E-04    2.0647092752E-04    2.0435694987E-04    2.0226459303E-04
    2.0019363623E-04    1.9814386097E-04    1.9611505097E-04    1.9410699216E-04
    1.9211947264E-04    1.9015228266E-04    1.8820521464E-04    1.8627806307E-04
    1.8437062457E-04    1.8248269782E-04    1.8061408353E-04    1.7876458448E-04
    1.7693400542E-04    1.7512215312E-04    1.7332883630E-04    1.7155386563E-04
    1.6979705372E-04    1.6805821508E-04    1.6633716612E-04    1.6463372510E-04
    1.6294771216E-04    1.6127894925E-04    1.5962726015E-04    1.5799247042E-04
    1.5637440742E-04    1.5477290024E-04    1.5318777975E-04    1.5161887852E-04
    1.5006603082E-04    1.4852907262E-04    1.4700784157E-04    1.4550217696E-04
    1.4401191974E-04    1.4253691245E-04    1.4107699926E-04    1.3963202592E-04
    1.3820183976E-04    1.3678628966E-04    1.3538522603E-04    1.3399850084E-04
    1.3262596753E-04    1.3126748106E-04    1.2992289786E-04    1.2859207583E-04
    1.2727487431E-04    1.2597115408E-04    1.2468077734E-04    1.2340360770E-04
    1.2213951016E-04    1.2088835109E-04    1.1964999822E-04    1.1842432065E-04
    1.1721118880E-04    1.1601047441E-04    1.1482205053E-04    1.1364579152E-04
    1.1248157300E-04    1.1132927188E-04    1.1018876631E-04    1.0905993569E-04
    1.0794266065E-04    1.0683682303E-04    1.0574230590E-04    1.0465899350E-04
    1.0358677126E-04    1.0252552577E-04    1.0147514480E-04    1.0043551725E-04
    9.9406533139E-05    9.8388083641E-05    9.7380061020E-05    9.6382358646E-05
    9.5394870975E-05    9.4417493544E-05    9.3450122952E-05    9.2492656858E-05
    9.1544993962E-05    9.0607034003E-05    8.9678677738E-05    8.8759826942E-05
    8.7850384391E-05    8.6950253853E-05    8.6059340081E-05    8.5177548799E-05
    8.4304786694E-05    8.3440961405E-05    8.2585981517E-05    8.1739756545E-05
    8.0902196931E-05    8.0073214030E-05    7.9252720104E-05    7.8440628309E-05
    7.7636852691E-05    7.6841308170E-05    7.6053910539E-05    7.5274576448E-05
    7.4503223401E-05    7.3739769742E-05    7.2984134653E-05    7.2236238138E-05
    7.1496001019E-05    7.0763344929E-05    7.0038192299E-05    6.9320466355E-05
    6.8610091105E-05    6.7906991334E-05    6.7211092598E-05    6.6522321210E-05
    6.5840604238E-05    6.5165869496E-05    6.4498045533E-05    6.3837061630E-05
    6.3182847791E-05    6.2535334735E-05    6.1894453888E-05    6.1260137377E-05
    6.0632318024E-05    6.0010929337E-05    5.9395905502E-05    5.8787181380E-05
    5.8184692496E-05    5.7588375035E-05    5.6998165834E-05    5.6414002377E-05
    5.5835822783E-05    5.5263565808E-05    5.4697170832E-05    5.4136577854E-05
    5.3581727488E-05    5.3032560955E-05    5.2489020075E-05    5.1951047264E-05
    5.1418585528E-05    5.0891578453E-05    5.0369970205E-05    4.9853705517E-05
    4.9342729690E-05    4.8836988583E-05    4.8336428610E-05    4.7840996730E-05
    4.7350640448E-05    4.6865307803E-05    4.6384947366E-05    4.5909508235E-05
    4.5438940027E-05    4.4973192875E-05    4.4512217422E-05    4.4055964815E-05
    4.3604386702E-05    4.3157435224E-05    4.2715063012E-05    4.2277223182E-05
    4.1843869329E-05    4.1414955523E-05    4.0990436302E-05    4.0570266671E-05
    4.0154402095E-05    3.9742798494E-05    3.9335412239E-05    3.8932200147E-05
    3.8533119476E-05    3.8138127924E-05    3.7747183618E-05    3.7360245116E-05
    3.6977271399E-05    3.6598221868E-05    3.6223056338E-05    3.5851735037E-05
    3.5484218598E-05    3.5120468058E-05    3.4760444854E-05    3.4404110813E-05
    3.4051428157E-05    3.3702359492E-05    3.3356867808E-05    3.3014916474E-05
    3.2676469230E-05    3.2341490193E-05    3.2009943842E-05    3.1681795022E-05
    3.1357008937E-05    3.1035551147E-05    3.0717387565E-05    3.0402484452E-05
    3.0090808415E-05    2.9782326402E-05    2.9477005699E-05    2.9174813928E-05
    2.8875719042E-05    2.8579689320E-05    2.8286693369E-05    2.7996700114E-05
    2.7709678799E-05    2.7425598985E-05    2.7144430542E-05    2.6866143649E-05
    2.6590708789E-05    2.6318096750E-05    2.6048278617E-05    2.5781225770E-05
    2.5516909885E-05    2.5255302925E-05    2.4996377141E-05    2.4740105069E-05
   </PP_CHI.1>
   <PP_CHI.2
       type="real"
       size="1232"
       columns="4"
       index="2"
       occupation=" 2.000"
       pseudo_energy="   -0.3860166567E+00"
       label="2P"
       l="1" >
    8.7546740690E-12    2.6694752794E-04    1.0672016122E-03    2.3989986323E-03
    4.2594054786E-03    6.6443289256E-03    9.5485287291E-03    1.2965634418E-02
    1.6888165749E-02    2.1307556773E-02    2.6214183460E-02    3.1597394825E-02
    3.7445547456E-02    4.3746043369E-02    5.0485371084E-02    5.7649149781E-02
    6.5222176431E-02    7.3188475717E-02    8.1531352594E-02    9.0233447302E-02
    9.9276792606E-02    1.0864287307E-01    1.1831268610E-01    1.2826680454E-01
    1.3848544045E-01    1.4894850998E-01    1.5963569879E-01    1.7052652795E-01
    1.8160041979E-01    1.9283676361E-01    2.0421498068E-01    2.1571458845E-01
    2.2731526339E-01    2.3899690243E-01    2.5073968244E-01    2.6252411759E-01
    2.7433111432E-01    2.8614202352E-01    2.9793868986E-01    3.0970349789E-01
    3.2141941482E-01    3.3307002973E-01    3.4463958914E-01    3.5611302871E-01
    3.6747600120E-01    3.7871490033E-01    3.8981688083E-01    4.0076987447E-01
    4.1156260223E-01    4.2218458257E-01    4.3262613606E-01    4.4287838629E-01
    4.5293325733E-01    4.6278346796E-01    4.7242252263E-01    4.8184469964E-01
    4.9104503648E-01    5.0001931275E-01    5.0876403080E-01    5.1727639430E-01
    5.2555428505E-01    5.3359623820E-01    5.4140141606E-01    5.4896958088E-01
    5.5630106660E-01    5.6339674990E-01    5.7025802072E-01    5.7688675231E-01
    5.8328527112E-01    5.8945632652E-01    5.9540306058E-01    6.0112897788E-01
    6.0663791565E-01    6.1193401402E-01    6.1702168674E-01    6.2190559217E-01
    6.2659060479E-01    6.3108178703E-01    6.3538436168E-01    6.3950368473E-01
    6.4344521872E-01    6.4721450662E-01    6.5081714623E-01    6.5425876519E-01
    6.5754499654E-01    6.6068145489E-01    6.6367371332E-01    6.6652728091E-01
    6.6924758116E-01    6.7183993113E-01    6.7430952161E-01    6.7666139822E-01
    6.7890044367E-01    6.8103136122E-01    6.8305865936E-01    6.8498663802E-01
    6.8681937625E-01    6.8856072150E-01    6.9021428067E-01    6.9178341296E-01
    6.9327122467E-01    6.9468056593E-01    6.9601402950E-01    6.9727395172E-01
    6.9846241546E-01    6.9958125535E-01    7.0063206495E-01    7.0161620613E-01
    7.0253482035E-01    7.0338884197E-01    7.0417901320E-01    7.0490590089E-01
    7.0556991467E-01    7.0617132647E-01    7.0671029117E-01    7.0718686802E-01
    7.0760104284E-01    7.0795275046E-01    7.0824189732E-01    7.0846838394E-01
    7.0863212689E-01    7.0873308003E-01    7.0877125475E-01    7.0874673900E-01
    7.0865971469E-01    7.0851047337E-01    7.0829942994E-01    7.0802713409E-01
    7.0769427948E-01    7.0730171028E-01    7.0685042515E-01    7.0634157405E-01
    7.0577639143E-01    7.0515610764E-01    7.0448193815E-01    7.0375508283E-01
    7.0297672541E-01    7.0214803317E-01    7.0127015657E-01    7.0034422908E-01
    6.9937136698E-01    6.9835266929E-01    6.9728921772E-01    6.9618207666E-01
    6.9503229326E-01    6.9384089746E-01    6.9260890212E-01    6.9133730312E-01
    6.9002707951E-01    6.8867919364E-01    6.8729459133E-01    6.8587420204E-01
    6.8441893904E-01    6.8292969958E-01    6.8140736509E-01    6.7985280136E-01
    6.7826685873E-01    6.7665037227E-01    6.7500416198E-01    6.7332903303E-01
    6.7162577588E-01    6.6989516655E-01    6.6813796675E-01    6.6635492415E-01
    6.6454677255E-01    6.6271423205E-01    6.6085800932E-01    6.5897879773E-01
    6.5707727758E-01    6.5515411631E-01    6.5320996869E-01    6.5124547700E-01
    6.4926127125E-01    6.4725796936E-01    6.4523617736E-01    6.4319648958E-01
    6.4113948884E-01    6.3906574666E-01    6.3697582340E-01    6.3487026850E-01
    6.3274962063E-01    6.3061440787E-01    6.2846514793E-01    6.2630234827E-01
    6.2412650633E-01    6.2193810967E-01    6.1973763616E-01    6.1752555415E-01
    6.1530232260E-01    6.1306839132E-01    6.1082420107E-01    6.0857018374E-01
    6.0630676253E-01    6.0403435208E-01    6.0175335862E-01    5.9946418017E-01
    5.9716720663E-01    5.9486281996E-01    5.9255139433E-01    5.9023329626E-01
    5.8790888475E-01    5.8557851141E-01    5.8324252065E-01    5.8090124974E-01
    5.7855502902E-01    5.7620418195E-01    5.7384902530E-01    5.7148986928E-01
    5.6912701759E-01    5.6676076763E-01    5.6439141058E-01    5.6201923149E-01
    5.5964450947E-01    5.5726751772E-01    5.5488852371E-01    5.5250778925E-01
    5.5012557060E-01    5.4774211861E-01    5.4535767877E-01    5.4297249136E-01
    5.4058679153E-01    5.3820080940E-01    5.3581477016E-01    5.3342889414E-01
    5.3104339696E-01    5.2865848956E-01    5.2627437833E-01    5.2389126516E-01
    5.2150934759E-01    5.1912881883E-01    5.1674986786E-01    5.1437267953E-01
    5.1199743464E-01    5.0962430999E-01    5.0725347848E-01    5.0488510918E-01
    5.0251936740E-01    5.0015641477E-01    4.9779640930E-01    4.9543950546E-01
    4.9308585424E-01    4.9073560323E-01    4.8838889667E-01    4.8604587550E-01
    4.8370667750E-01    4.8137143724E-01    4.7904028620E-01    4.7671335282E-01
    4.7439076258E-01    4.7207263802E-01    4.6975909884E-01    4.6745026189E-01
    4.6514624129E-01    4.6284714843E-01    4.6055309205E-01    4.5826417829E-01
    4.5598051072E-01    4.5370219040E-01    4.5142931593E-01    4.4916198350E-01
    4.4690028689E-01    4.4464431758E-01    4.4239416475E-01    4.4014991534E-01
    4.3791165408E-01    4.3567946352E-01    4.3345342410E-01    4.3123361417E-01
    4.2902011000E-01    4.2681298589E-01    4.2461231413E-01    4.2241816505E-01
    4.2023060710E-01    4.1804970684E-01    4.1587552896E-01    4.1370813638E-01
    4.1154759019E-01    4.0939394976E-01    4.0724727270E-01    4.0510761496E-01
    4.0297503080E-01    4.0084957284E-01    3.9873129208E-01    3.9662023795E-01
    3.9451645830E-01    3.9241999944E-01    3.9033090617E-01    3.8824922180E-01
    3.8617498817E-01    3.8410824566E-01    3.8204903325E-01    3.7999738850E-01
    3.7795334757E-01    3.7591694530E-01    3.7388821514E-01    3.7186718925E-01
    3.6985389847E-01    3.6784837233E-01    3.6585063914E-01    3.6386072591E-01
    3.6187865844E-01    3.5990446130E-01    3.5793815786E-01    3.5597977030E-01
    3.5402931962E-01    3.5208682568E-01    3.5015230719E-01    3.4822578172E-01
    3.4630726575E-01    3.4439677463E-01    3.4249432265E-01    3.4059992302E-01
    3.3871358787E-01    3.3683532832E-01    3.3496515443E-01    3.3310307525E-01
    3.3124909881E-01    3.2940323217E-01    3.2756548140E-01    3.2573585157E-01
    3.2391434685E-01    3.2210097041E-01    3.2029572454E-01    3.1849861057E-01
    3.1670962896E-01    3.1492877925E-01    3.1315606012E-01    3.1139146940E-01
    3.0963500403E-01    3.0788666015E-01    3.0614643306E-01    3.0441431726E-01
    3.0269030646E-01    3.0097439359E-01    2.9926657081E-01    2.9756682956E-01
    2.9587516053E-01    2.9419155371E-01    2.9251599837E-01    2.9084848314E-01
    2.8918899597E-01    2.8753752417E-01    2.8589405443E-01    2.8425857284E-01
    2.8263106489E-01    2.8101151553E-01    2.7939990914E-01    2.7779622960E-01
    2.7620046028E-01    2.7461258405E-01    2.7303258333E-01    2.7146044012E-01
    2.6989613597E-01    2.6833965204E-01    2.6679096912E-01    2.6525006765E-01
    2.6371692773E-01    2.6219152913E-01    2.6067385136E-01    2.5916387365E-01
    2.5766157495E-01    2.5616693402E-01    2.5467992937E-01    2.5320053936E-01
    2.5172874213E-01    2.5026451568E-01    2.4880783788E-01    2.4735868646E-01
    2.4591703903E-01    2.4448287312E-01    2.4305616616E-01    2.4163689550E-01
    2.4022503843E-01    2.3882057219E-01    2.3742347393E-01    2.3603372080E-01
    2.3465128986E-01    2.3327615815E-01    2.3190830264E-01    2.3054770026E-01
    2.2919432787E-01    2.2784816229E-01    2.2650918021E-01    2.2517735826E-01
    2.2385267294E-01    2.2253510061E-01    2.2122461749E-01    2.1992119958E-01
    2.1862482268E-01    2.1733546233E-01    2.1605309374E-01    2.1477769180E-01
    2.1350923102E-01    2.1224768542E-01    2.1099302854E-01    2.0974523333E-01
    2.0850427212E-01    2.0727011652E-01    2.0604273738E-01    2.0482210464E-01
    2.0360818724E-01    2.0240095340E-01    2.0120037118E-01    2.0000640874E-01
    1.9881903436E-01    1.9763821650E-01    1.9646392370E-01    1.9529612469E-01
    1.9413478828E-01    1.9297988345E-01    1.9183137928E-01    1.9068924500E-01
    1.8955344996E-01    1.8842396362E-01    1.8730075559E-01    1.8618379558E-01
    1.8507305345E-01    1.8396849915E-01    1.8287010277E-01    1.8177783451E-01
    1.8069166470E-01    1.7961156377E-01    1.7853750227E-01    1.7746945088E-01
    1.7640738036E-01    1.7535126163E-01    1.7430106568E-01    1.7325676364E-01
    1.7221832672E-01    1.7118572627E-01    1.7015893373E-01    1.6913792066E-01
    1.6812265871E-01    1.6711311966E-01    1.6610927537E-01    1.6511109782E-01
    1.6411855910E-01    1.6313163138E-01    1.6215028697E-01    1.6117449825E-01
    1.6020423772E-01    1.5923947797E-01    1.5828019170E-01    1.5732635171E-01
    1.5637793089E-01    1.5543490225E-01    1.5449723889E-01    1.5356491400E-01
    1.5263790088E-01    1.5171617292E-01    1.5079970363E-01    1.4988846658E-01
    1.4898243547E-01    1.4808158408E-01    1.4718588631E-01    1.4629531612E-01
    1.4540984760E-01    1.4452945492E-01    1.4365411234E-01    1.4278379425E-01
    1.4191847508E-01    1.4105812942E-01    1.4020273189E-01    1.3935225727E-01
    1.3850668037E-01    1.3766597615E-01    1.3683011964E-01    1.3599908596E-01
    1.3517285033E-01    1.3435138807E-01    1.3353467460E-01    1.3272268541E-01
    1.3191539610E-01    1.3111278236E-01    1.3031481999E-01    1.2952148485E-01
    1.2873275292E-01    1.2794860028E-01    1.2716900307E-01    1.2639393756E-01
    1.2562338008E-01    1.2485730707E-01    1.2409569508E-01    1.2333852071E-01
    1.2258576070E-01    1.2183739185E-01    1.2109339106E-01    1.2035373533E-01
    1.1961840175E-01    1.1888736749E-01    1.1816060983E-01    1.1743810613E-01
    1.1671983386E-01    1.1600577055E-01    1.1529589384E-01    1.1459018148E-01
    1.1388861128E-01    1.1319116115E-01    1.1249780911E-01    1.1180853325E-01
    1.1112331176E-01    1.1044212292E-01    1.0976494510E-01    1.0909175676E-01
    1.0842253646E-01    1.0775726284E-01    1.0709591464E-01    1.0643847067E-01
    1.0578490985E-01    1.0513521119E-01    1.0448935379E-01    1.0384731682E-01
    1.0320907957E-01    1.0257462140E-01    1.0194392176E-01    1.0131696019E-01
    1.0069371634E-01    1.0007416991E-01    9.9458300735E-02    9.8846088700E-02
    9.8237513798E-02    9.7632556107E-02    9.7031195794E-02    9.6433413112E-02
    9.5839188405E-02    9.5248502104E-02    9.4661334727E-02    9.4077666880E-02
    9.3497479258E-02    9.2920752642E-02    9.2347467900E-02    9.1777605988E-02
    9.1211147949E-02    9.0648074910E-02    9.0088368089E-02    8.9532008787E-02
    8.8978978393E-02    8.8429258379E-02    8.7882830308E-02    8.7339675823E-02
    8.6799776655E-02    8.6263114622E-02    8.5729671625E-02    8.5199429648E-02
    8.4672370764E-02    8.4148477126E-02    8.3627730976E-02    8.3110114635E-02
    8.2595610512E-02    8.2084201097E-02    8.1575868964E-02    8.1070596772E-02
    8.0568367259E-02    8.0069163251E-02    7.9572967652E-02    7.9079763452E-02
    7.8589533719E-02    7.8102261606E-02    7.7617930348E-02    7.7136523260E-02
    7.6658023737E-02    7.6182415259E-02    7.5709681382E-02    7.5239805746E-02
    7.4772772071E-02    7.4308564155E-02    7.3847165877E-02    7.3388561197E-02
    7.2932734152E-02    7.2479668859E-02    7.2029349515E-02    7.1581760395E-02
    7.1136885850E-02    7.0694710314E-02    7.0255218294E-02    6.9818394378E-02
    6.9384223230E-02    6.8952689591E-02    6.8523778280E-02    6.8097474191E-02
    6.7673762297E-02    6.7252627644E-02    6.6834055356E-02    6.6418030633E-02
    6.6004538749E-02    6.5593565053E-02    6.5185094970E-02    6.4779113999E-02
    6.4375607714E-02    6.3974561763E-02    6.3575961866E-02    6.3179793819E-02
    6.2786043491E-02    6.2394696822E-02    6.2005739828E-02    6.1619158594E-02
    6.1234939281E-02    6.0853068118E-02    6.0473531409E-02    6.0096315529E-02
    5.9721406921E-02    5.9348792104E-02    5.8978457665E-02    5.8610390259E-02
    5.8244576617E-02    5.7881003534E-02    5.7519657878E-02    5.7160526586E-02
    5.6803596663E-02    5.6448855183E-02    5.6096289290E-02    5.5745886194E-02
    5.5397633175E-02    5.5051517579E-02    5.4707526821E-02    5.4365648383E-02
    5.4025869812E-02    5.3688178723E-02    5.3352562799E-02    5.3019009787E-02
    5.2687507499E-02    5.2358043816E-02    5.2030606680E-02    5.1705184102E-02
    5.1381764155E-02    5.1060334977E-02    5.0740884772E-02    5.0423401806E-02
    5.0107874408E-02    4.9794290973E-02    4.9482639958E-02    4.9172909882E-02
    4.8865089327E-02    4.8559166938E-02    4.8255131421E-02    4.7952971544E-02
    4.7652676138E-02    4.7354234094E-02    4.7057634364E-02    4.6762865959E-02
    4.6469917955E-02    4.6178779483E-02    4.5889439738E-02    4.5601887972E-02
    4.5316113498E-02    4.5032105687E-02    4.4749853969E-02    4.4469347833E-02
    4.4190576826E-02    4.3913530553E-02    4.3638198678E-02    4.3364570920E-02
    4.3092637058E-02    4.2822386927E-02    4.2553810417E-02    4.2286897476E-02
    4.2021638110E-02    4.1758022377E-02    4.1496040394E-02    4.1235682332E-02
    4.0976938417E-02    4.0719798931E-02    4.0464254209E-02    4.0210294642E-02
    3.9957910674E-02    3.9707092803E-02    3.9457831582E-02    3.9210117616E-02
    3.8963941563E-02    3.8719294135E-02    3.8476166096E-02    3.8234548261E-02
    3.7994431499E-02    3.7755806731E-02    3.7518664928E-02    3.7282997114E-02
    3.7048794362E-02    3.6816047798E-02    3.6584748598E-02    3.6354887987E-02
    3.6126457242E-02    3.5899447689E-02    3.5673850704E-02    3.5449657711E-02
    3.5226860185E-02    3.5005449649E-02    3.4785417674E-02    3.4566755881E-02
    3.4349455938E-02    3.4133509561E-02    3.3918908514E-02    3.3705644608E-02
    3.3493709702E-02    3.3283095701E-02    3.3073794557E-02    3.2865798269E-02
    3.2659098882E-02    3.2453688486E-02    3.2249559219E-02    3.2046703263E-02
    3.1845112845E-02    3.1644780239E-02    3.1445697760E-02    3.1247857772E-02
    3.1051252682E-02    3.0855874940E-02    3.0661717040E-02    3.0468771521E-02
    3.0277030965E-02    3.0086487996E-02    2.9897135284E-02    2.9708965539E-02
    2.9521971515E-02    2.9336146007E-02    2.9151481854E-02    2.8967971936E-02
    2.8785609174E-02    2.8604386532E-02    2.8424297014E-02    2.8245333666E-02
    2.8067489574E-02    2.7890757864E-02    2.7715131706E-02    2.7540604305E-02
    2.7367168910E-02    2.7194818808E-02    2.7023547326E-02    2.6853347830E-02
    2.6684213726E-02    2.6516138457E-02    2.6349115508E-02    2.6183138399E-02
    2.6018200690E-02    2.5854295980E-02    2.5691417904E-02    2.5529560135E-02
    2.5368716385E-02    2.5208880403E-02    2.5050045973E-02    2.4892206917E-02
    2.4735357096E-02    2.4579490403E-02    2.4424600772E-02    2.4270682169E-02
    2.4117728599E-02    2.3965734101E-02    2.3814692749E-02    2.3664598655E-02
    2.3515445964E-02    2.3367228855E-02    2.3219941544E-02    2.3073578280E-02
    2.2928133347E-02    2.2783601064E-02    2.2639975782E-02    2.2497251888E-02
    2.2355423800E-02    2.2214485972E-02    2.2074432889E-02    2.1935259071E-02
    2.1796959069E-02    2.1659527469E-02    2.1522958888E-02    2.1387247974E-02
    2.1252389411E-02    2.1118377910E-02    2.0985208218E-02    2.0852875112E-02
    2.0721373400E-02    2.0590697921E-02    2.0460843547E-02    2.0331805179E-02
    2.0203577749E-02    2.0076156220E-02    1.9949535586E-02    1.9823710870E-02
    1.9698677126E-02    1.9574429437E-02    1.9450962916E-02    1.9328272707E-02
    1.9206353980E-02    1.9085201937E-02    1.8964811809E-02    1.8845178854E-02
    1.8726298361E-02    1.8608165646E-02    1.8490776054E-02    1.8374124957E-02
    1.8258207758E-02    1.8143019884E-02    1.8028556793E-02    1.7914813969E-02
    1.7801786923E-02    1.7689471195E-02    1.7577862351E-02    1.7466955984E-02
    1.7356747714E-02    1.7247233187E-02    1.7138408077E-02    1.7030268083E-02
    1.6922808930E-02    1.6816026370E-02    1.6709916180E-02    1.6604474165E-02
    1.6499696152E-02    1.6395577996E-02    1.6292115577E-02    1.6189304800E-02
    1.6087141594E-02    1.5985621913E-02    1.5884741738E-02    1.5784497072E-02
    1.5684883944E-02    1.5585898406E-02    1.5487536535E-02    1.5389794432E-02
    1.5292668222E-02    1.5196154053E-02    1.5100248097E-02    1.5004946549E-02
    1.4910245629E-02    1.4816141578E-02    1.4722630662E-02    1.4629709168E-02
    1.4537373408E-02    1.4445619714E-02    1.4354444442E-02    1.4263843972E-02
    1.4173814702E-02    1.4084353056E-02    1.3995455479E-02    1.3907118437E-02
    1.3819338419E-02    1.3732111933E-02    1.3645435512E-02    1.3559305708E-02
    1.3473719095E-02    1.3388672268E-02    1.3304161843E-02    1.3220184456E-02
    1.3136736766E-02    1.3053815451E-02    1.2971417208E-02    1.2889538758E-02
    1.2808176839E-02    1.2727328210E-02    1.2646989652E-02    1.2567157963E-02
    1.2487829962E-02    1.2409002488E-02    1.2330672400E-02    1.2252836574E-02
    1.2175491908E-02    1.2098635317E-02    1.2022263738E-02    1.1946374123E-02
    1.1870963447E-02    1.1796028700E-02    1.1721566893E-02    1.1647575056E-02
    1.1574050234E-02    1.1500989494E-02    1.1428389919E-02    1.1356248612E-02
    1.1284562691E-02    1.1213329294E-02    1.1142545578E-02    1.1072208714E-02
    1.1002315893E-02    1.0932864323E-02    1.0863851230E-02    1.0795273856E-02
    1.0727129461E-02    1.0659415320E-02    1.0592128728E-02    1.0525266996E-02
    1.0458827449E-02    1.0392807432E-02    1.0327204306E-02    1.0262015445E-02
    1.0197238245E-02    1.0132870113E-02    1.0068908475E-02    1.0005350771E-02
    9.9421944607E-03    9.8794370151E-03    9.8170759236E-03    9.7551086905E-03
    9.6935328356E-03    9.6323458944E-03    9.5715454175E-03    9.5111289710E-03
    9.4510941358E-03    9.3914385083E-03    9.3321596996E-03    9.2732553359E-03
    9.2147230579E-03    9.1565605214E-03    9.0987653964E-03    9.0413353679E-03
    8.9842681349E-03    8.9275614110E-03    8.8712129242E-03    8.8152204163E-03
    8.7595816435E-03    8.7042943759E-03    8.6493563977E-03    8.5947655065E-03
    8.5405195143E-03    8.4866162462E-03    8.4330535411E-03    8.3798292516E-03
    8.3269412433E-03    8.2743873957E-03    8.2221656010E-03    8.1702737649E-03
    8.1187098062E-03    8.0674716566E-03    8.0165572607E-03    7.9659645763E-03
    7.9156915735E-03    7.8657362355E-03    7.8160965578E-03    7.7667705488E-03
    7.7177562291E-03    7.6690516317E-03    7.6206548022E-03    7.5725637980E-03
    7.5247766891E-03    7.4772915574E-03    7.4301064968E-03    7.3832196131E-03
    7.3366290241E-03    7.2903328594E-03    7.2443292603E-03    7.1986163796E-03
    7.1531923818E-03    7.1080554431E-03    7.0632037509E-03    7.0186355040E-03
    6.9743489125E-03    6.9303421978E-03    6.8866135926E-03    6.8431613402E-03
    6.7999836956E-03    6.7570789242E-03    6.7144453025E-03    6.6720811179E-03
    6.6299846684E-03    6.5881542629E-03    6.5465882206E-03    6.5052848716E-03
    6.4642425562E-03    6.4234596254E-03    6.3829344404E-03    6.3426653727E-03
    6.3026508041E-03    6.2628891264E-03    6.2233787418E-03    6.1841180624E-03
    6.1451055101E-03    6.1063395171E-03    6.0678185251E-03    6.0295409859E-03
    5.9915053608E-03    5.9537101210E-03    5.9161537470E-03    5.8788347292E-03
    5.8417515673E-03    5.8049027705E-03    5.7682868574E-03    5.7319023560E-03
    5.6957478033E-03    5.6598217457E-03    5.6241227389E-03    5.5886493473E-03
    5.5534001448E-03    5.5183737138E-03    5.4835686461E-03    5.4489835420E-03
    5.4146170109E-03    5.3804676706E-03    5.3465341481E-03    5.3128150785E-03
    5.2793091060E-03    5.2460148831E-03    5.2129310707E-03    5.1800563384E-03
    5.1473893639E-03    5.1149288334E-03    5.0826734415E-03    5.0506218908E-03
    5.0187728921E-03    4.9871251645E-03    4.9556774350E-03    4.9244284388E-03
    4.8933769189E-03    4.8625216264E-03    4.8318613200E-03    4.8013947667E-03
    4.7711207407E-03    4.7410380244E-03    4.7111454077E-03    4.6814416881E-03
    4.6519256708E-03    4.6225961683E-03    4.5934520010E-03    4.5644919964E-03
    4.5357149895E-03    4.5071198228E-03    4.4787053457E-03    4.4504704154E-03
    4.4224138960E-03    4.3945346587E-03    4.3668315821E-03    4.3393035516E-03
    4.3119494598E-03    4.2847682064E-03    4.2577586978E-03    4.2309198474E-03
    4.2042505756E-03    4.1777498093E-03    4.1514164826E-03    4.1252495360E-03
    4.0992479168E-03    4.0734105790E-03    4.0477364832E-03    4.0222245965E-03
    3.9968738925E-03    3.9716833514E-03    3.9466519598E-03    3.9217787107E-03
    3.8970626035E-03    3.8725026438E-03    3.8480978436E-03    3.8238472212E-03
    3.7997498009E-03    3.7758046134E-03    3.7520106953E-03    3.7283670895E-03
    3.7048728448E-03    3.6815270161E-03    3.6583286642E-03    3.6352768561E-03
    3.6123706642E-03    3.5896091672E-03    3.5669914495E-03    3.5445166012E-03
    3.5221837182E-03    3.4999919023E-03    3.4779402607E-03    3.4560279064E-03
    3.4342539580E-03    3.4126175396E-03    3.3911177809E-03    3.3697538172E-03
    3.3485247891E-03    3.3274298427E-03    3.3064681296E-03    3.2856388066E-03
    3.2649410360E-03    3.2443739852E-03    3.2239368270E-03    3.2036287395E-03
    3.1834489059E-03    3.1633965146E-03    3.1434707591E-03    3.1236708380E-03
    3.1039959551E-03    3.0844453190E-03    3.0650181436E-03    3.0457136476E-03
    3.0265310546E-03    3.0074695932E-03    2.9885284969E-03    2.9697070040E-03
    2.9510043576E-03    2.9324198058E-03    2.9139526011E-03    2.8956020011E-03
    2.8773672677E-03    2.8592476680E-03    2.8412424732E-03    2.8233509594E-03
    2.8055724073E-03    2.7879061021E-03    2.7703513335E-03    2.7529073956E-03
    2.7355735873E-03    2.7183492115E-03    2.7012335760E-03    2.6842259925E-03
    2.6673257773E-03    2.6505322512E-03    2.6338447389E-03    2.6172625697E-03
    2.6007850770E-03    2.5844115985E-03    2.5681414760E-03    2.5519740556E-03
    2.5359086873E-03    2.5199447256E-03    2.5040815288E-03    2.4883184592E-03
    2.4726548835E-03    2.4570901720E-03    2.4416236992E-03    2.4262548436E-03
    2.4109829876E-03    2.3958075173E-03    2.3807278231E-03    2.3657432990E-03
    2.3508533427E-03    2.3360573561E-03    2.3213547446E-03    2.3067449174E-03
    2.2922272875E-03    2.2778012716E-03    2.2634662902E-03    2.2492217673E-03
    2.2350671307E-03    2.2210018116E-03    2.2070252450E-03    2.1931368696E-03
    2.1793361273E-03    2.1656224637E-03    2.1519953281E-03    2.1384541731E-03
    2.1249984547E-03    2.1116276324E-03    2.0983411694E-03    2.0851385318E-03
    2.0720191895E-03    2.0589826157E-03    2.0460282866E-03    2.0331556821E-03
    2.0203642853E-03    2.0076535825E-03    1.9950230633E-03    1.9824722204E-03
    1.9700005501E-03    1.9576075514E-03    1.9452927268E-03    1.9330555819E-03
    1.9208956254E-03    1.9088123689E-03    1.8968053276E-03    1.8848740193E-03
    1.8730179650E-03    1.8612366888E-03    1.8495297179E-03    1.8378965822E-03
    1.8263368149E-03    1.8148499519E-03    1.8034355322E-03    1.7920930977E-03
    1.7808221931E-03    1.7696223662E-03    1.7584931674E-03    1.7474341501E-03
    1.7364448706E-03    1.7255248878E-03    1.7146737635E-03    1.7038910624E-03
    1.6931763518E-03    1.6825292019E-03    1.6719491853E-03    1.6614358777E-03
    1.6509888572E-03    1.6406077047E-03    1.6302920039E-03    1.6200413408E-03
    1.6098553042E-03    1.5997334857E-03    1.5896754791E-03    1.5796808810E-03
    1.5697492906E-03    1.5598803096E-03    1.5500735420E-03    1.5403285947E-03
    1.5306450769E-03    1.5210226001E-03    1.5114607785E-03    1.5019592287E-03
    1.4925175698E-03    1.4831354230E-03    1.4738124123E-03    1.4645481638E-03
    1.4553423061E-03    1.4461944702E-03    1.4371042892E-03    1.4280713988E-03
    1.4190954369E-03    1.4101760437E-03    1.4013128615E-03    1.3925055353E-03
    1.3837537118E-03    1.3750570405E-03    1.3664151727E-03    1.3578277620E-03
    1.3492944644E-03    1.3408149378E-03    1.3323888424E-03    1.3240158407E-03
    1.3156955970E-03    1.3074277780E-03    1.2992120524E-03    1.2910480911E-03
    1.2829355669E-03    1.2748741549E-03    1.2668635320E-03    1.2589033774E-03
    1.2509933722E-03    1.2431331995E-03    1.2353225444E-03    1.2275610942E-03
    1.2198485379E-03    1.2121845667E-03    1.2045688735E-03    1.1970011535E-03
    1.1894811034E-03    1.1820084222E-03    1.1745828106E-03    1.1672039713E-03
    1.1598716088E-03    1.1525854295E-03    1.1453451417E-03    1.1381504554E-03
    1.1310010827E-03    1.1238967374E-03    1.1168371349E-03    1.1098219927E-03
   </PP_CHI.2>
 </PP_PSWFC>
 <PP_NLCC type="real"  size="1232" columns="4">
    6.7005396910E-01    6.6980886232E-01    6.6907392288E-01    6.6785029295E-01
    6.6613987442E-01    6.6394532637E-01    6.6127006142E-01    6.5811824113E-01
    6.5449477034E-01    6.5040529050E-01    6.4585617193E-01    6.4085450509E-01
    6.3540809083E-01    6.2952542956E-01    6.2321570945E-01    6.1648879358E-01
    6.0935520602E-01    6.0182611698E-01    5.9391332681E-01    5.8562924907E-01
    5.7698689254E-01    5.6799984216E-01    5.5868223902E-01    5.4904875924E-01
    5.3911459191E-01    5.2889541590E-01    5.1840737575E-01    5.0766705642E-01
    4.9669145711E-01    4.8549796400E-01    4.7410432196E-01    4.6252860527E-01
    4.5078918725E-01    4.3890470892E-01    4.2689404661E-01    4.1477627853E-01
    4.0257065033E-01    3.9029653963E-01    3.7797341949E-01    3.6562082090E-01
    3.5325829422E-01    3.4090536957E-01    3.2858151624E-01    3.1630610104E-01
    3.0409834559E-01    2.9197728266E-01    2.7996171142E-01    2.6807015170E-01
    2.5632079716E-01    2.4473146753E-01    2.3331955971E-01    2.2210199796E-01
    2.1109518294E-01    2.0031493981E-01    1.8977646528E-01    1.7949427361E-01
    1.6948214161E-01    1.5975305256E-01    1.5031913922E-01    1.4119162563E-01
    1.3238076806E-01    1.2389579484E-01    1.1574484514E-01    1.0793490679E-01
    1.0047175306E-01    9.3359878330E-02    8.6602432858E-02    8.0201156413E-02
    7.4156310942E-02    6.8466612180E-02    6.3129160244E-02    5.8139369195E-02
    5.3490895572E-02    4.9175565894E-02    4.5183303142E-02    4.1502052205E-02
    3.8117704303E-02    3.5014020375E-02    3.2172553448E-02    2.9572572463E-02
    2.7191594796E-02    2.5008064058E-02    2.3002602228E-02    2.1157932303E-02
    1.9458717105E-02    1.7891376208E-02    1.6443898889E-02    1.5105664387E-02
    1.3867275491E-02    1.2720407892E-02    1.1657675561E-02    1.0672511358E-02
    9.7590615237E-03    8.9120926446E-03    8.1269097357E-03    7.3992842289E-03
    6.7253908241E-03    6.1017522897E-03    5.5251914067E-03    4.9927893300E-03
    4.5018496910E-03    4.0498678111E-03    3.6345044308E-03    3.2535633954E-03
    2.9049727836E-03    2.5867690059E-03    2.2970834550E-03    2.0341313366E-03
    1.7962023660E-03    1.5816530633E-03    1.3889004281E-03    1.2164168156E-03
    1.0627258779E-03    9.2639946116E-04    8.0605538108E-04    7.0035601954E-04
    6.0800770415E-04    5.2776084683E-04    4.5841082890E-04    3.9879962910E-04
    3.4781819710E-04    3.0440957996E-04    2.6757281178E-04    2.3636757824E-04
    2.0991966768E-04    1.8742721899E-04    1.6816777407E-04    1.5150613865E-04
    1.3690305096E-04    1.2392465227E-04    1.1225274006E-04    1.0169252449E-04
    9.2130858678E-05    8.3472837346E-05    7.5632618874E-05    6.8532558529E-05
    6.2102421805E-05    5.6278673480E-05    5.1003835243E-05    4.6225905245E-05
    4.1897833574E-05    3.7977048235E-05    3.4425026746E-05    3.1206908939E-05
    2.8291146978E-05    2.5649188993E-05    2.3255193101E-05    2.1085768857E-05
    1.9119743507E-05    1.7337950640E-05    1.5723039093E-05    1.4259300146E-05
    1.2932511253E-05    1.1729794722E-05    1.0639489896E-05    9.6510375501E-06
    8.7548753253E-06    7.9423431368E-06    7.2055976080E-06    6.5375346583E-06
    5.9317194671E-06    5.3823231056E-06    4.8840651999E-06    4.4321620468E-06
    4.0222796623E-06    3.6504912914E-06    3.3132389522E-06    3.0072986298E-06
    2.7297487726E-06    2.4779417746E-06    2.2494781605E-06    2.0421832152E-06
    1.8540858264E-06    1.6833993274E-06    1.5285041526E-06    1.3879321318E-06
    1.2603522678E-06    1.1445578568E-06    1.0394548245E-06    9.4405116149E-07
    8.5744735519E-07    7.7882772272E-07    7.0745256013E-07    6.4265103040E-07
    5.8381472048E-07    5.3039180403E-07    4.8188175275E-07    4.3783054435E-07
    3.9782632038E-07    3.6149545152E-07    3.2849897176E-07    2.9852934688E-07
    2.7130754561E-07    2.4658038507E-07    2.2411812460E-07    2.0371228470E-07
    1.8517366986E-07    1.6833057618E-07    1.5302716631E-07    1.3912199621E-07
    1.2648667931E-07    1.1500467520E-07    1.0457019134E-07    9.5087187015E-08
    8.6468470036E-08    7.8634877572E-08    7.1514533137E-08    6.5042172685E-08
    5.9158533324E-08    5.3809798824E-08    4.8947096595E-08    4.4526041355E-08
    4.0506321112E-08    3.6851321541E-08    3.3527785156E-08    3.0505502059E-08
    2.7757029306E-08    2.5257436245E-08    2.2984073407E-08    2.0916362754E-08
    1.9035607311E-08    1.7324818375E-08    1.5768558674E-08    1.4352799996E-08
    1.3064793942E-08    1.1892954599E-08    1.0826752015E-08    9.8566154835E-09
    8.9738457308E-09    8.1705351804E-09    7.4394955473E-09    6.7741920880E-09
    6.1686838887E-09    5.6175696358E-09    5.1159383635E-09    4.6593247180E-09
    4.2436683233E-09    3.8652768703E-09    3.5207925867E-09    3.2071617761E-09
    2.9216071442E-09    2.6616026561E-09    2.4248506919E-09    2.2092612892E-09
    2.0129332815E-09    1.8341371583E-09    1.6712994885E-09    1.5229887645E-09
    1.3879025369E-09    1.2648557204E-09    1.1527699649E-09    1.0506639945E-09
    9.5764482444E-10    8.7289977704E-10    7.9568922334E-10    7.2533998381E-10
    6.6123932832E-10    6.0282952057E-10    5.4960285734E-10    5.0109715743E-10
    4.5689165945E-10    4.1660329104E-10    3.7988327586E-10    3.4641404756E-10
    3.1590644286E-10    2.8809714831E-10    2.6274637776E-10    2.3963575951E-10
    2.1856641420E-10    1.9935720610E-10    1.8184315201E-10    1.6587397368E-10
    1.5131278044E-10    1.3803487066E-10    1.2592664087E-10    1.1488459309E-10
    1.0481443142E-10    9.5630239757E-11    8.7253733359E-11    7.9613577638E-11
    7.2644768035E-11    6.6288065513E-11    6.0489482657E-11    5.5199815796E-11
    5.0374219039E-11    4.5971816418E-11    4.1955348733E-11    3.8290851970E-11
    3.4947364459E-11    3.1896660186E-11    2.9113005911E-11    2.6572939967E-11
    2.4255070774E-11    2.2139893327E-11    2.0209622023E-11    1.8448038383E-11
    1.6840352323E-11    1.5373075768E-11    1.4033907509E-11    1.2811628282E-11
    1.1696005181E-11    1.0677704546E-11    9.7482125893E-12    8.8997630592E-12
    8.1252713165E-12    7.4182742533E-12    6.7728755331E-12    6.1836956782E-12
    5.6458265736E-12    5.1547899947E-12    4.7064998004E-12    4.2972274676E-12
    3.9235706681E-12    3.5824246204E-12    3.2709559677E-12    2.9865789609E-12
    2.7269337395E-12    2.4898665269E-12    2.2734115693E-12    2.0757746645E-12
    1.8953181394E-12    1.7305471490E-12    1.5800971793E-12    1.4427226487E-12
    1.3172865093E-12    1.2027507622E-12    1.0981678044E-12    1.0026725344E-12
    9.1547514982E-13    8.3585457697E-13    7.6315247468E-13    6.9676776385E-13
    6.3615163549E-13    5.8080299549E-13    5.3026430764E-13    4.8411780003E-13
    4.4198200285E-13    4.0350858861E-13    3.6837948816E-13    3.3630425843E-13
    3.0701767976E-13    2.8027756274E-13    2.5586274628E-13    2.3357127008E-13
    2.1321870628E-13    1.9463663648E-13    1.7767126121E-13    1.6218213050E-13
    1.4804098486E-13    1.3513069704E-13    1.2334430580E-13    1.1258413370E-13
    1.0276098149E-13    9.3793392537E-14    8.5606981081E-14    7.8133818884E-14
    7.1311875064E-14    6.5084504573E-14    5.9399981053E-14    5.4211070223E-14
    4.9474640264E-14    4.5151305998E-14    4.1205103920E-14    3.7603195399E-14
    3.4315595622E-14    3.1314926016E-14    2.8576188144E-14    2.6076557188E-14
    2.3795193333E-14    2.1713069494E-14    1.9812813975E-14    1.8078566766E-14
    1.6495848281E-14    1.5051439489E-14    1.3733272422E-14    1.2530330176E-14
    1.1432555582E-14    1.0430767797E-14    9.5165861173E-15    8.6823604128E-15
    7.9211075825E-15    7.2264535283E-15    6.5925801618E-15    6.0141770105E-15
    5.4863970240E-15    5.0048162171E-15    4.5653968176E-15    4.1644536157E-15
    3.7986232358E-15    3.4648360805E-15    3.1602907118E-15    2.8824304610E-15
    2.6289220733E-15    2.3976362091E-15    2.1866296435E-15    1.9941290136E-15
    1.8185159896E-15    1.6583137125E-15    1.5121744320E-15    1.3788682621E-15
    1.2572728640E-15    1.1463638784E-15    1.0452061775E-15    9.5294603221E-16
    8.6880405253E-16    7.9206876339E-16    7.2209072627E-16    6.5827716465E-16
    6.0008705165E-16    5.4702661996E-16    4.9864525843E-16    4.5453176213E-16
    4.1431090595E-16    3.7764031384E-16    3.4420759865E-16    3.1372774920E-16
    2.8594074354E-16    2.6060936894E-16    2.3751723080E-16    2.1646693432E-16
    1.9727842403E-16    1.7978746751E-16    1.6384427106E-16    1.4931221570E-16
    1.3606670327E-16    1.2399410302E-16    1.1299079010E-16    1.0296226780E-16
    9.3822366565E-17    8.5492512834E-17    7.7901061828E-17    7.0982688675E-17
    6.4677832813E-17    5.8932191005E-17    5.3696254766E-17    4.8924888327E-17
    4.4576943598E-17    4.0614908905E-17    3.7004588543E-17    3.3714810471E-17
    3.0717159684E-17    2.7985735012E-17    2.5496927294E-17    2.3229217065E-17
    2.1162990050E-17    1.9280368889E-17    1.7565059684E-17    1.6002212060E-17
    1.4578291558E-17    1.3280963286E-17    1.2098985811E-17    1.1022114428E-17
    1.0041012955E-17    9.1471733200E-18    8.3328422432E-18    7.5909543947E-18
    6.9150714624E-18    6.2993266015E-18    5.7383737938E-18    5.2273416863E-18
    4.7617915134E-18    4.3376787405E-18    3.9513181012E-18    3.5993517300E-18
    3.2787201186E-18    2.9866356397E-18    2.7205584188E-18    2.4781743440E-18
    2.2573750232E-18    2.0562395178E-18    1.8730176959E-18    1.7061150628E-18
    1.5540789349E-18    1.4155858405E-18    1.2894300395E-18    1.1745130607E-18
    1.0698341679E-18    9.7448167199E-19    8.8762501535E-19    8.0850755791E-19
    7.3644000427E-19    6.7079441514E-19    6.1099875001E-19    5.5653189485E-19
    5.0691913203E-19    4.6172801251E-19    4.2056459472E-19    3.8307001817E-19
    3.4891738162E-19    3.1780889845E-19    2.8947330530E-19    2.6366350131E-19
    2.4015439690E-19    2.1874095410E-19    1.9923640152E-19    1.8147060759E-19
    1.6528859886E-19    1.5054921029E-19    1.3712385527E-19    1.2489540535E-19
    1.1375716975E-19    1.0361196557E-19    9.4371270703E-20    8.5954452478E-20
    7.8288064643E-20    7.1305207099E-20    6.4944942720E-20    5.9151765962E-20
    5.3875118853E-20    4.9068950187E-20    4.4691313828E-20    4.0704002877E-20
    3.7072216476E-20    3.3764256187E-20    3.0751249482E-20    2.8006897910E-20
    2.5507247601E-20    2.3230480304E-20    2.1156723028E-20    1.9267874605E-20
    1.7572034506E-20    1.5901169853E-20    1.4383674299E-20    1.4193394966E-20
    1.1671556536E-20    3.5184502597E-21   -1.1442932607E-21   -1.3805646920E-22
    2.4540912835E-22   -2.1462255999E-23   -1.3348062469E-23    0.0000000000E+00
    0.0000000000E+00    0.0000000000E+00    0.0000000000E+00    0.0000000000E+00
    0.0000000000E+00    0.0000000000E+00    0.0000000000E+00    0.0000000000E+00
    0.0000000000E+00    0.0000000000E+00    0.0000000000E+00    0.0000000000E+00
    0.0000000000E+00    0.0000000000E+00    0.0000000000E+00    0.0000000000E+00
    0.0000000000E+00    0.0000000000E+00    0.0000000000E+00    0.0000000000E+00
    0.0000000000E+00    0.0000000000E+00    0.0000000000E+00    0.0000000000E+00
    0.0000000000E+00    0.0000000000E+00    0.0000000000E+00    0.0000000000E+00
    0.0000000000E+00    0.0000000000E+00    0.0000000000E+00    0.0000000000E+00
    0.0000000000E+00    0.0000000000E+00    0.0000000000E+00    0.0000000000E+00
    0.0000000000E+00    0.0000000000E+00    0.0000000000E+00    0.0000000000E+00
    0.0000000000E+00    0.0000000000E+00    0.0000000000E+00    0.0000000000E+00
    0.0000000000E+00    0.0000000000E+00    0.0000000000E+00    0.0000000000E+00
    0.0000000000E+00    0.0000000000E+00    0.0000000000E+00    0.0000000000E+00
    0.0000000000E+00    0.0000000000E+00    0.0000000000E+00    0.0000000000E+00
    0.0000000000E+00    0.0000000000E+00    0.0000000000E+00    0.0000000000E+00
    0.0000000000E+00    0.0000000000E+00    0.0000000000E+00    0.0000000000E+00
    0.0000000000E+00    0.0000000000E+00    0.0000000000E+00    0.0000000000E+00
    0.0000000000E+00    0.0000000000E+00    0.0000000000E+00    0.0000000000E+00
    0.0000000000E+00    0.0000000000E+00    0.0000000000E+00    0.0000000000E+00
    0.0000000000E+00    0.0000000000E+00    0.0000000000E+00    0.0000000000E+00
    0.0000000000E+00    0.0000000000E+00    0.0000000000E+00    0.0000000000E+00
    0.0000000000E+00    0.0000000000E+00    0.0000000000E+00    0.0000000000E+00
    0.0000000000E+00    0.0000000000E+00    0.0000000000E+00    0.0000000000E+00
    0.0000000000E+00    0.0000000000E+00    0.0000000000E+00    0.0000000000E+00
    0.0000000000E+00    0.0000000000E+00    0.0000000000E+00    0.0000000000E+00
    0.0000000000E+00    0.0000000000E+00    0.0000000000E+00    0.0000000000E+00
    0.0000000000E+00    0.0000000000E+00    0.0000000000E+00    0.0000000000E+00
    0.0000000000E+00    0.0000000000E+00    0.0000000000E+00    0.0000000000E+00
    0.0000000000E+00    0.0000000000E+00    0.0000000000E+00    0.0000000000E+00
    0.0000000000E+00    0.0000000000E+00    0.0000000000E+00    0.0000000000E+00
    0.0000000000E+00    0.0000000000E+00    0.0000000000E+00    0.0000000000E+00
    0.0000000000E+00    0.0000000000E+00    0.0000000000E+00    0.0000000000E+00
    0.0000000000E+00    0.0000000000E+00    0.0000000000E+00    0.0000000000E+00
    0.0000000000E+00    0.0000000000E+00    0.0000000000E+00    0.0000000000E+00
    0.0000000000E+00    0.0000000000E+00    0.0000000000E+00    0.0000000000E+00
    0.0000000000E+00    0.0000000000E+00    0.0000000000E+00    0.0000000000E+00
    0.0000000000E+00    0.0000000000E+00    0.0000000000E+00    0.0000000000E+00
    0.0000000000E+00    0.0000000000E+00    0.0000000000E+00    0.0000000000E+00
    0.0000000000E+00    0.0000000000E+00    0.0000000000E+00    0.0000000000E+00
    0.0000000000E+00    0.0000000000E+00    0.0000000000E+00    0.0000000000E+00
    0.0000000000E+00    0.0000000000E+00    0.0000000000E+00    0.0000000000E+00
    0.0000000000E+00    0.0000000000E+00    0.0000000000E+00    0.0000000000E+00
    0.0000000000E+00    0.0000000000E+00    0.0000000000E+00    0.0000000000E+00
    0.0000000000E+00    0.0000000000E+00    0.0000000000E+00    0.0000000000E+00
    0.0000000000E+00    0.0000000000E+00    0.0000000000E+00    0.0000000000E+00
    0.0000000000E+00    0.0000000000E+00    0.0000000000E+00    0.0000000000E+00
    0.0000000000E+00    0.0000000000E+00    0.0000000000E+00    0.0000000000E+00
    0.0000000000E+00    0.0000000000E+00    0.0000000000E+00    0.0000000000E+00
    0.0000000000E+00    0.0000000000E+00    0.0000000000E+00    0.0000000000E+00
    0.0000000000E+00    0.0000000000E+00    0.0000000000E+00    0.0000000000E+00
    0.0000000000E+00    0.0000000000E+00    0.0000000000E+00    0.0000000000E+00
    0.0000000000E+00    0.0000000000E+00    0.0000000000E+00    0.0000000000E+00
    0.0000000000E+00    0.0000000000E+00    0.0000000000E+00    0.0000000000E+00
    0.0000000000E+00    0.0000000000E+00    0.0000000000E+00    0.0000000000E+00
    0.0000000000E+00    0.0000000000E+00    0.0000000000E+00    0.0000000000E+00
    0.0000000000E+00    0.0000000000E+00    0.0000000000E+00    0.0000000000E+00
    0.0000000000E+00    0.0000000000E+00    0.0000000000E+00    0.0000000000E+00
    0.0000000000E+00    0.0000000000E+00    0.0000000000E+00    0.0000000000E+00
    0.0000000000E+00    0.0000000000E+00    0.0000000000E+00    0.0000000000E+00
    0.0000000000E+00    0.0000000000E+00    0.0000000000E+00    0.0000000000E+00
    0.0000000000E+00    0.0000000000E+00    0.0000000000E+00    0.0000000000E+00
    0.0000000000E+00    0.0000000000E+00    0.0000000000E+00    0.0000000000E+00
    0.0000000000E+00    0.0000000000E+00    0.0000000000E+00    0.0000000000E+00
    0.0000000000E+00    0.0000000000E+00    0.0000000000E+00    0.0000000000E+00
    0.0000000000E+00    0.0000000000E+00    0.0000000000E+00    0.0000000000E+00
    0.0000000000E+00    0.0000000000E+00    0.0000000000E+00    0.0000000000E+00
    0.0000000000E+00    0.0000000000E+00    0.0000000000E+00    0.0000000000E+00
    0.0000000000E+00    0.0000000000E+00    0.0000000000E+00    0.0000000000E+00
    0.0000000000E+00    0.0000000000E+00    0.0000000000E+00    0.0000000000E+00
    0.0000000000E+00    0.0000000000E+00    0.0000000000E+00    0.0000000000E+00
    0.0000000000E+00    0.0000000000E+00    0.0000000000E+00    0.0000000000E+00
    0.0000000000E+00    0.0000000000E+00    0.0000000000E+00    0.0000000000E+00
    0.0000000000E+00    0.0000000000E+00    0.0000000000E+00    0.0000000000E+00
    0.0000000000E+00    0.0000000000E+00    0.0000000000E+00    0.0000000000E+00
    0.0000000000E+00    0.0000000000E+00    0.0000000000E+00    0.0000000000E+00
    0.0000000000E+00    0.0000000000E+00    0.0000000000E+00    0.0000000000E+00
    0.0000000000E+00    0.0000000000E+00    0.0000000000E+00    0.0000000000E+00
    0.0000000000E+00    0.0000000000E+00    0.0000000000E+00    0.0000000000E+00
    0.0000000000E+00    0.0000000000E+00    0.0000000000E+00    0.0000000000E+00
    0.0000000000E+00    0.0000000000E+00    0.0000000000E+00    0.0000000000E+00
    0.0000000000E+00    0.0000000000E+00    0.0000000000E+00    0.0000000000E+00
    0.0000000000E+00    0.0000000000E+00    0.0000000000E+00    0.0000000000E+00
    0.0000000000E+00    0.0000000000E+00    0.0000000000E+00    0.0000000000E+00
    0.0000000000E+00    0.0000000000E+00    0.0000000000E+00    0.0000000000E+00
    0.0000000000E+00    0.0000000000E+00    0.0000000000E+00    0.0000000000E+00
    0.0000000000E+00    0.0000000000E+00    0.0000000000E+00    0.0000000000E+00
    0.0000000000E+00    0.0000000000E+00    0.0000000000E+00    0.0000000000E+00
    0.0000000000E+00    0.0000000000E+00    0.0000000000E+00    0.0000000000E+00
    0.0000000000E+00    0.0000000000E+00    0.0000000000E+00    0.0000000000E+00
    0.0000000000E+00    0.0000000000E+00    0.0000000000E+00    0.0000000000E+00
    0.0000000000E+00    0.0000000000E+00    0.0000000000E+00    0.0000000000E+00
    0.0000000000E+00    0.0000000000E+00    0.0000000000E+00    0.0000000000E+00
    0.0000000000E+00    0.0000000000E+00    0.0000000000E+00    0.0000000000E+00
    0.0000000000E+00    0.0000000000E+00    0.0000000000E+00    0.0000000000E+00
    0.0000000000E+00    0.0000000000E+00    0.0000000000E+00    0.0000000000E+00
    0.0000000000E+00    0.0000000000E+00    0.0000000000E+00    0.0000000000E+00
    0.0000000000E+00    0.0000000000E+00    0.0000000000E+00    0.0000000000E+00
    0.0000000000E+00    0.0000000000E+00    0.0000000000E+00    0.0000000000E+00
    0.0000000000E+00    0.0000000000E+00    0.0000000000E+00    0.0000000000E+00
    0.0000000000E+00    0.0000000000E+00    0.0000000000E+00    0.0000000000E+00
    0.0000000000E+00    0.0000000000E+00    0.0000000000E+00    0.0000000000E+00
    0.0000000000E+00    0.0000000000E+00    0.0000000000E+00    0.0000000000E+00
    0.0000000000E+00    0.0000000000E+00    0.0000000000E+00    0.0000000000E+00
    0.0000000000E+00    0.0000000000E+00    0.0000000000E+00    0.0000000000E+00
    0.0000000000E+00    0.0000000000E+00    0.0000000000E+00    0.0000000000E+00
    0.0000000000E+00    0.0000000000E+00    0.0000000000E+00    0.0000000000E+00
    0.0000000000E+00    0.0000000000E+00    0.0000000000E+00    0.0000000000E+00
    0.0000000000E+00    0.0000000000E+00    0.0000000000E+00    0.0000000000E+00
    0.0000000000E+00    0.0000000000E+00    0.0000000000E+00    0.0000000000E+00
    0.0000000000E+00    0.0000000000E+00    0.0000000000E+00    0.0000000000E+00
    0.0000000000E+00    0.0000000000E+00    0.0000000000E+00    0.0000000000E+00
    0.0000000000E+00    0.0000000000E+00    0.0000000000E+00    0.0000000000E+00
    0.0000000000E+00    0.0000000000E+00    0.0000000000E+00    0.0000000000E+00
    0.0000000000E+00    0.0000000000E+00    0.0000000000E+00    0.0000000000E+00
    0.0000000000E+00    0.0000000000E+00    0.0000000000E+00    0.0000000000E+00
    0.0000000000E+00    0.0000000000E+00    0.0000000000E+00    0.0000000000E+00
    0.0000000000E+00    0.0000000000E+00    0.0000000000E+00    0.0000000000E+00
    0.0000000000E+00    0.0000000000E+00    0.0000000000E+00    0.0000000000E+00
    0.0000000000E+00    0.0000000000E+00    0.0000000000E+00    0.0000000000E+00
    0.0000000000E+00    0.0000000000E+00    0.0000000000E+00    0.0000000000E+00
    0.0000000000E+00    0.0000000000E+00    0.0000000000E+00    0.0000000000E+00
    0.0000000000E+00    0.0000000000E+00    0.0000000000E+00    0.0000000000E+00
    0.0000000000E+00    0.0000000000E+00    0.0000000000E+00    0.0000000000E+00
    0.0000000000E+00    0.0000000000E+00    0.0000000000E+00    0.0000000000E+00
    0.0000000000E+00    0.0000000000E+00    0.0000000000E+00    0.0000000000E+00
    0.0000000000E+00    0.0000000000E+00    0.0000000000E+00    0.0000000000E+00
    0.0000000000E+00    0.0000000000E+00    0.0000000000E+00    0.0000000000E+00
    0.0000000000E+00    0.0000000000E+00    0.0000000000E+00    0.0000000000E+00
    0.0000000000E+00    0.0000000000E+00    0.0000000000E+00    0.0000000000E+00
    0.0000000000E+00    0.0000000000E+00    0.0000000000E+00    0.0000000000E+00
    0.0000000000E+00    0.0000000000E+00    0.0000000000E+00    0.0000000000E+00
    0.0000000000E+00    0.0000000000E+00    0.0000000000E+00    0.0000000000E+00
    0.0000000000E+00    0.0000000000E+00    0.0000000000E+00    0.0000000000E+00
    0.0000000000E+00    0.0000000000E+00    0.0000000000E+00    0.0000000000E+00
    0.0000000000E+00    0.0000000000E+00    0.0000000000E+00    0.0000000000E+00
    0.0000000000E+00    0.0000000000E+00    0.0000000000E+00    0.0000000000E+00
    0.0000000000E+00    0.0000000000E+00    0.0000000000E+00    0.0000000000E+00
    0.0000000000E+00    0.0000000000E+00    0.0000000000E+00    0.0000000000E+00
    0.0000000000E+00    0.0000000000E+00    0.0000000000E+00    0.0000000000E+00
    0.0000000000E+00    0.0000000000E+00    0.0000000000E+00    0.0000000000E+00
    0.0000000000E+00    0.0000000000E+00    0.0000000000E+00    0.0000000000E+00
    0.0000000000E+00    0.0000000000E+00    0.0000000000E+00    0.0000000000E+00
    0.0000000000E+00    0.0000000000E+00    0.0000000000E+00    0.0000000000E+00
    0.0000000000E+00    0.0000000000E+00    0.0000000000E+00    0.0000000000E+00
    0.0000000000E+00    0.0000000000E+00    0.0000000000E+00    0.0000000000E+00
    0.0000000000E+00    0.0000000000E+00    0.0000000000E+00    0.0000000000E+00
    0.0000000000E+00    0.0000000000E+00    0.0000000000E+00    0.0000000000E+00
    0.0000000000E+00    0.0000000000E+00    0.0000000000E+00    0.0000000000E+00
    0.0000000000E+00    0.0000000000E+00    0.0000000000E+00    0.0000000000E+00
    0.0000000000E+00    0.0000000000E+00    0.0000000000E+00    0.0000000000E+00
    0.0000000000E+00    0.0000000000E+00    0.0000000000E+00    0.0000000000E+00
    0.0000000000E+00    0.0000000000E+00    0.0000000000E+00    0.0000000000E+00
    0.0000000000E+00    0.0000000000E+00    0.0000000000E+00    0.0000000000E+00
    0.0000000000E+00    0.0000000000E+00    0.0000000000E+00    0.0000000000E+00
    0.0000000000E+00    0.0000000000E+00    0.0000000000E+00    0.0000000000E+00
    0.0000000000E+00    0.0000000000E+00    0.0000000000E+00    0.0000000000E+00
    0.0000000000E+00    0.0000000000E+00    0.0000000000E+00    0.0000000000E+00
    0.0000000000E+00    0.0000000000E+00    0.0000000000E+00    0.0000000000E+00
    0.0000000000E+00    0.0000000000E+00    0.0000000000E+00    0.0000000000E+00
    0.0000000000E+00    0.0000000000E+00    0.0000000000E+00    0.0000000000E+00
    0.0000000000E+00    0.0000000000E+00    0.0000000000E+00    0.0000000000E+00
    0.0000000000E+00    0.0000000000E+00    0.0000000000E+00    0.0000000000E+00
    0.0000000000E+00    0.0000000000E+00    0.0000000000E+00    0.0000000000E+00
    0.0000000000E+00    0.0000000000E+00    0.0000000000E+00    0.0000000000E+00
    0.0000000000E+00    0.0000000000E+00    0.0000000000E+00    0.0000000000E+00
    0.0000000000E+00    0.0000000000E+00    0.0000000000E+00    0.0000000000E+00
    0.0000000000E+00    0.0000000000E+00    0.0000000000E+00    0.0000000000E+00
    0.0000000000E+00    0.0000000000E+00    0.0000000000E+00    0.0000000000E+00
    0.0000000000E+00    0.0000000000E+00    0.0000000000E+00    0.0000000000E+00
    0.0000000000E+00    0.0000000000E+00    0.0000000000E+00    0.0000000000E+00
    0.0000000000E+00    0.0000000000E+00    0.0000000000E+00    0.0000000000E+00
    0.0000000000E+00    0.0000000000E+00    0.0000000000E+00    0.0000000000E+00
    0.0000000000E+00    0.0000000000E+00    0.0000000000E+00    0.0000000000E+00
    0.0000000000E+00    0.0000000000E+00    0.0000000000E+00    0.0000000000E+00
    0.0000000000E+00    0.0000000000E+00    0.0000000000E+00    0.0000000000E+00
 </PP_NLCC>
 <PP_RHOATOM type="real"  size="1232" columns="4">
    0.0000000000E+00    2.1747628536E-05    8.9059123793E-05    2.0812329893E-04
    3.8919826730E-04    6.4652708244E-04    9.9822063638E-04    1.4661088100E-03
    2.0755611418E-03    2.8552785428E-03    3.8370578387E-03    5.0555311567E-03
    6.5478823953E-03    8.3535432205E-03    1.0513871213E-02    1.3071812947E-02
    1.6071554922E-02    1.9558165363E-02    2.3577229995E-02    2.8174484922E-02
    3.3395449775E-02    3.9285064257E-02    4.5887331155E-02    5.3244968813E-02
    6.1399075922E-02    7.0388811330E-02    8.0251091410E-02    9.1020307266E-02
    1.0272806387E-01    1.1540294291E-01    1.2907029094E-01    1.4375203394E-01
    1.5946651941E-01    1.7622838642E-01    1.9404846417E-01    2.1293369884E-01
    2.3288710871E-01    2.5390776679E-01    2.7599081041E-01    2.9912747648E-01
    3.2330516134E-01    3.4850750382E-01    3.7471448971E-01    4.0190257619E-01
    4.3004483424E-01    4.5911110720E-01    4.8906818364E-01    5.1987998258E-01
    5.5150774903E-01    5.8391025831E-01    6.1704402697E-01    6.5086352882E-01
    6.8532141441E-01    7.2036873234E-01    7.5595515099E-01    7.9202917941E-01
    8.2853838616E-01    8.6542961495E-01    9.0264919613E-01    9.4014315321E-01
    9.7785740357E-01    1.0157379527E+00    1.0537310813E+00    1.0917835251E+00
    1.1298426458E+00    1.1678565948E+00    1.2057744667E+00    1.2435464447E+00
    1.2811239360E+00    1.3184596976E+00    1.3555079521E+00    1.3922244936E+00
    1.4285667830E+00    1.4644940328E+00    1.4999672816E+00    1.5349494578E+00
    1.5694054322E+00    1.6033020603E+00    1.6366082138E+00    1.6692948013E+00
    1.7013347783E+00    1.7327031475E+00    1.7633769483E+00    1.7933352373E+00
    1.8225590587E+00    1.8510314061E+00    1.8787371762E+00    1.9056631140E+00
    1.9317977519E+00    1.9571313408E+00    1.9816557773E+00    2.0053645244E+00
    2.0282525295E+00    2.0503161381E+00    2.0715530062E+00    2.0919620107E+00
    2.1115431601E+00    2.1302975047E+00    2.1482270490E+00    2.1653346662E+00
    2.1816240157E+00    2.1970994641E+00    2.2117660115E+00    2.2256292220E+00
    2.2386951606E+00    2.2509703360E+00    2.2624616502E+00    2.2731763541E+00
    2.2831220108E+00    2.2923064657E+00    2.3007378229E+00    2.3084244292E+00
    2.3153748636E+00    2.3215979338E+00    2.3271026768E+00    2.3318983661E+00
    2.3359945217E+00    2.3394009246E+00    2.3421276337E+00    2.3441850040E+00
    2.3455837072E+00    2.3463347506E+00    2.3464494969E+00    2.3459396812E+00
    2.3448174260E+00    2.3430952526E+00    2.3407860890E+00    2.3379032725E+00
    2.3344605470E+00    2.3304720554E+00    2.3259523248E+00    2.3209162354E+00
    2.3153788389E+00    2.3093551286E+00    2.3028599976E+00    2.2959082216E+00
    2.2885144441E+00    2.2806931634E+00    2.2724587195E+00    2.2638252837E+00
    2.2548068487E+00    2.2454172196E+00    2.2356700065E+00    2.2255786171E+00
    2.2151562516E+00    2.2044158965E+00    2.1933703207E+00    2.1820320715E+00
    2.1704134711E+00    2.1585266137E+00    2.1463833640E+00    2.1339953542E+00
    2.1213739837E+00    2.1085304175E+00    2.0954755858E+00    2.0822201835E+00
    2.0687746707E+00    2.0551492726E+00    2.0413539805E+00    2.0273985523E+00
    2.0132925141E+00    1.9990451612E+00    1.9846655602E+00    1.9701625499E+00
    1.9555447443E+00    1.9408205339E+00    1.9259980886E+00    1.9110853595E+00
    1.8960900821E+00    1.8810197784E+00    1.8658817602E+00    1.8506831314E+00
    1.8354307915E+00    1.8201314382E+00    1.8047915708E+00    1.7894174931E+00
    1.7740153168E+00    1.7585909646E+00    1.7431501736E+00    1.7276984986E+00
    1.7122413152E+00    1.6967838237E+00    1.6813310517E+00    1.6658878581E+00
    1.6504589363E+00    1.6350488174E+00    1.6196618737E+00    1.6043023221E+00
    1.5889742274E+00    1.5736815054E+00    1.5584279266E+00    1.5432171192E+00
    1.5280525724E+00    1.5129376398E+00    1.4978755423E+00    1.4828693715E+00
    1.4679220925E+00    1.4530365475E+00    1.4382154584E+00    1.4234614301E+00
    1.4087769533E+00    1.3941644073E+00    1.3796260635E+00    1.3651640874E+00
    1.3507805419E+00    1.3364773901E+00    1.3222564978E+00    1.3081196361E+00
    1.2940684844E+00    1.2801046326E+00    1.2662295837E+00    1.2524447564E+00
    1.2387514874E+00    1.2251510339E+00    1.2116445759E+00    1.1982332184E+00
    1.1849179937E+00    1.1716998637E+00    1.1585797218E+00    1.1455583953E+00
    1.1326366473E+00    1.1198151788E+00    1.1070946304E+00    1.0944755847E+00
    1.0819585679E+00    1.0695440514E+00    1.0572324541E+00    1.0450241439E+00
    1.0329194394E+00    1.0209186116E+00    1.0090218856E+00    9.9722944192E-01
    9.8554141858E-01    9.7395791210E-01    9.6247897923E-01    9.5110463833E-01
    9.3983487081E-01    9.2866962244E-01    9.1760880472E-01    9.0665229617E-01
    8.9579994359E-01    8.8505156329E-01    8.7440694229E-01    8.6386583945E-01
    8.5342798671E-01    8.4309309003E-01    8.3286083053E-01    8.2273086559E-01
    8.1270282977E-01    8.0277633589E-01    7.9295097588E-01    7.8322632179E-01
    7.7360192664E-01    7.6407732532E-01    7.5465203543E-01    7.4532555810E-01
    7.3609737879E-01    7.2696696807E-01    7.1793378239E-01    7.0899726476E-01
    7.0015684549E-01    6.9141194289E-01    6.8276196389E-01    6.7420630472E-01
    6.6574435151E-01    6.5737548092E-01    6.4909906069E-01    6.4091445021E-01
    6.3282100109E-01    6.2481805769E-01    6.1690495758E-01    6.0908103210E-01
    6.0134560679E-01    5.9369800189E-01    5.8613753274E-01    5.7866351025E-01
    5.7127524130E-01    5.6397202915E-01    5.5675317380E-01    5.4961797241E-01
    5.4256571960E-01    5.3559570787E-01    5.2870722787E-01    5.2189956874E-01
    5.1517201846E-01    5.0852386408E-01    5.0195439208E-01    4.9546288857E-01
    4.8904863964E-01    4.8271093154E-01    4.7644905097E-01    4.7026228529E-01
    4.6414992279E-01    4.5811125284E-01    4.5214556615E-01    4.4625215497E-01
    4.4043031323E-01    4.3467933680E-01    4.2899852358E-01    4.2338717373E-01
    4.1784458983E-01    4.1237007698E-01    4.0696294300E-01    4.0162249853E-01
    3.9634805720E-01    3.9113893573E-01    3.8599445405E-01    3.8091393543E-01
    3.7589670657E-01    3.7094209771E-01    3.6604944275E-01    3.6121807930E-01
    3.5644734880E-01    3.5173659660E-01    3.4708517200E-01    3.4249242838E-01
    3.3795772324E-01    3.3348041825E-01    3.2905987935E-01    3.2469547676E-01
    3.2038658508E-01    3.1613258331E-01    3.1193285489E-01    3.0778678777E-01
    3.0369377444E-01    2.9965321194E-01    2.9566450193E-01    2.9172705071E-01
    2.8784026924E-01    2.8400357316E-01    2.8021638282E-01    2.7647812333E-01
    2.7278822452E-01    2.6914612099E-01    2.6555125213E-01    2.6200306211E-01
    2.5850099992E-01    2.5504451933E-01    2.5163307895E-01    2.4826614220E-01
    2.4494317731E-01    2.4166365736E-01    2.3842706024E-01    2.3523286865E-01
    2.3208057012E-01    2.2896965700E-01    2.2589962644E-01    2.2286998041E-01
    2.1988022564E-01    2.1692987369E-01    2.1401844086E-01    2.1114544825E-01
    2.0831042167E-01    2.0551289173E-01    2.0275239371E-01    2.0002846764E-01
    1.9734065825E-01    1.9468851492E-01    1.9207159174E-01    1.8948944742E-01
    1.8694164531E-01    1.8442775336E-01    1.8194734413E-01    1.7949999474E-01
    1.7708528686E-01    1.7470280670E-01    1.7235214495E-01    1.7003289681E-01
    1.6774466192E-01    1.6548704435E-01    1.6325965261E-01    1.6106209954E-01
    1.5889400238E-01    1.5675498268E-01    1.5464466627E-01    1.5256268327E-01
    1.5050866803E-01    1.4848225911E-01    1.4648309924E-01    1.4451083530E-01
    1.4256511826E-01    1.4064560317E-01    1.3875194914E-01    1.3688381924E-01
    1.3504088053E-01    1.3322280398E-01    1.3142926445E-01    1.2965994064E-01
    1.2791451504E-01    1.2619267391E-01    1.2449410720E-01    1.2281850854E-01
    1.2116557517E-01    1.1953500789E-01    1.1792651103E-01    1.1633979237E-01
    1.1477456312E-01    1.1323053782E-01    1.1170743436E-01    1.1020497383E-01
    1.0872288052E-01    1.0726088192E-01    1.0581870885E-01    1.0439609545E-01
    1.0299277920E-01    1.0160850087E-01    1.0024300449E-01    9.8896037333E-02
    9.7567349848E-02    9.6256695671E-02    9.4963831568E-02    9.3688517412E-02
    9.2430516146E-02    9.1189593758E-02    8.9965519246E-02    8.8758064585E-02
    8.7567004699E-02    8.6392117425E-02    8.5233183488E-02    8.4089986463E-02
    8.2962312748E-02    8.1849951530E-02    8.0752694758E-02    7.9670337106E-02
    7.8602675949E-02    7.7549511327E-02    7.6510645916E-02    7.5485885001E-02
    7.4475036439E-02    7.3477910636E-02    7.2494320513E-02    7.1524081476E-02
    7.0567011391E-02    6.9622930549E-02    6.8691661641E-02    6.7773029727E-02
    6.6866862209E-02    6.5972988800E-02    6.5091241501E-02    6.4221454565E-02
    6.3363464478E-02    6.2517109926E-02    6.1682231767E-02    6.0858673009E-02
    6.0046278778E-02    5.9244896295E-02    5.8454374849E-02    5.7674565768E-02
    5.6905322397E-02    5.6146500072E-02    5.5397956091E-02    5.4659549693E-02
    5.3931142031E-02    5.3212596150E-02    5.2503776958E-02    5.1804551206E-02
    5.1114787464E-02    5.0434356094E-02    4.9763129231E-02    4.9100980756E-02
    4.8447786276E-02    4.7803423100E-02    4.7167770219E-02    4.6540708279E-02
    4.5922119563E-02    4.5311887972E-02    4.4709898994E-02    4.4116039695E-02
    4.3530198689E-02    4.2952266121E-02    4.2382133646E-02    4.1819694411E-02
    4.1264843031E-02    4.0717475572E-02    4.0177489532E-02    3.9644783818E-02
    3.9119258735E-02    3.8600815956E-02    3.8089358514E-02    3.7584790777E-02
    3.7087018433E-02    3.6595948471E-02    3.6111489165E-02    3.5633550052E-02
    3.5162041920E-02    3.4696876791E-02    3.4237967899E-02    3.3785229679E-02
    3.3338577746E-02    3.2897928883E-02    3.2463201023E-02    3.2034313234E-02
    3.1611185702E-02    3.1193739716E-02    3.0781897656E-02    3.0375582973E-02
    2.9974720178E-02    2.9579234826E-02    2.9189053503E-02    2.8804103808E-02
    2.8424314345E-02    2.8049614702E-02    2.7679935445E-02    2.7315208099E-02
    2.6955365136E-02    2.6600339963E-02    2.6250066909E-02    2.5904481210E-02
    2.5563519001E-02    2.5227117298E-02    2.4895213990E-02    2.4567747824E-02
    2.4244658395E-02    2.3925886135E-02    2.3611372298E-02    2.3301058951E-02
    2.2994888965E-02    2.2692805996E-02    2.2394754484E-02    2.2100679635E-02
    2.1810527413E-02    2.1524244529E-02    2.1241778431E-02    2.0963077293E-02
    2.0688090005E-02    2.0416766164E-02    2.0149056063E-02    1.9884910682E-02
    1.9624281678E-02    1.9367121375E-02    1.9113382757E-02    1.8863019456E-02
    1.8615985743E-02    1.8372236523E-02    1.8131727321E-02    1.7894414276E-02
    1.7660254133E-02    1.7429204233E-02    1.7201222506E-02    1.6976267460E-02
    1.6754298178E-02    1.6535274304E-02    1.6319156040E-02    1.6105904136E-02
    1.5895479882E-02    1.5687845101E-02    1.5482962142E-02    1.5280793874E-02
    1.5081303673E-02    1.4884455423E-02    1.4690213502E-02    1.4498542779E-02
    1.4309408606E-02    1.4122776812E-02    1.3938613693E-02    1.3756886011E-02
    1.3577560984E-02    1.3400606279E-02    1.3225990007E-02    1.3053680718E-02
    1.2883647392E-02    1.2715859437E-02    1.2550286677E-02    1.2386899353E-02
    1.2225668113E-02    1.2066564005E-02    1.1909558477E-02    1.1754623367E-02
    1.1601730897E-02    1.1450853671E-02    1.1301964668E-02    1.1155037236E-02
    1.1010045088E-02    1.0866962296E-02    1.0725763286E-02    1.0586422835E-02
    1.0448916063E-02    1.0313218432E-02    1.0179305737E-02    1.0047154103E-02
    9.9167399839E-03    9.7880401519E-03    9.6610316971E-03    9.5356920220E-03
    9.4119988370E-03    9.2899301563E-03    9.1694642937E-03    9.0505798581E-03
    8.9332557500E-03    8.8174711567E-03    8.7032055490E-03    8.5904386768E-03
    8.4791505655E-03    8.3693215119E-03    8.2609320807E-03    8.1539631007E-03
    8.0483956608E-03    7.9442111071E-03    7.8413910386E-03    7.7399173041E-03
    7.6397719986E-03    7.5409374601E-03    7.4433962659E-03    7.3471312294E-03
    7.2521253970E-03    7.1583620446E-03    7.0658246747E-03    6.9744970130E-03
    6.8843630055E-03    6.7954068154E-03    6.7076128201E-03    6.6209656081E-03
    6.5354499764E-03    6.4510509272E-03    6.3677536655E-03    6.2855435960E-03
    6.2044063203E-03    6.1243276345E-03    6.0452935262E-03    5.9672901721E-03
    5.8903039352E-03    5.8143213624E-03    5.7393291817E-03    5.6653143000E-03
    5.5922638005E-03    5.5201649404E-03    5.4490051482E-03    5.3787720216E-03
    5.3094533252E-03    5.2410369880E-03    5.1735111013E-03    5.1068639165E-03
    5.0410838428E-03    4.9761594448E-03    4.9120794411E-03    4.8488327013E-03
    4.7864082445E-03    4.7247952372E-03    4.6639829910E-03    4.6039609607E-03
    4.5447187428E-03    4.4862460728E-03    4.4285328239E-03    4.3715690046E-03
    4.3153447576E-03    4.2598503571E-03    4.2050762076E-03    4.1510128418E-03
    4.0976509192E-03    4.0449812239E-03    3.9929946633E-03    3.9416822661E-03
    3.8910351809E-03    3.8410446745E-03    3.7917021303E-03    3.7429990464E-03
    3.6949270346E-03    3.6474778184E-03    3.6006432317E-03    3.5544152171E-03
    3.5087858248E-03    3.4637472107E-03    3.4192916350E-03    3.3754114614E-03
    3.3320991547E-03    3.2893472803E-03    3.2471485023E-03    3.2054955826E-03
    3.1643813789E-03    3.1237988442E-03    3.0837410250E-03    3.0442010600E-03
    3.0051721793E-03    2.9666477026E-03    2.9286210385E-03    2.8910856828E-03
    2.8540352178E-03    2.8174633107E-03    2.7813637128E-03    2.7457302582E-03
    2.7105568627E-03    2.6758375226E-03    2.6415663137E-03    2.6077373904E-03
    2.5743449844E-03    2.5413834037E-03    2.5088470315E-03    2.4767303254E-03
    2.4450278164E-03    2.4137341076E-03    2.3828438734E-03    2.3523518587E-03
    2.3222528778E-03    2.2925418133E-03    2.2632136157E-03    2.2342633018E-03
    2.2056859544E-03    2.1774767209E-03    2.1496308130E-03    2.1221435054E-03
    2.0950101350E-03    2.0682261002E-03    2.0417868603E-03    2.0156879340E-03
    1.9899248992E-03    1.9644933922E-03    1.9393891063E-03    1.9146077919E-03
    1.8901452552E-03    1.8659973574E-03    1.8421600142E-03    1.8186291952E-03
    1.7954009227E-03    1.7724712714E-03    1.7498363675E-03    1.7274923883E-03
    1.7054355610E-03    1.6836621626E-03    1.6621685188E-03    1.6409510035E-03
    1.6200060382E-03    1.5993300916E-03    1.5789196783E-03    1.5587713588E-03
    1.5388817388E-03    1.5192474683E-03    1.4998652412E-03    1.4807317948E-03
    1.4618439092E-03    1.4431984064E-03    1.4247921503E-03    1.4066220456E-03
    1.3886850377E-03    1.3709781119E-03    1.3534982929E-03    1.3362426443E-03
    1.3192082682E-03    1.3023923044E-03    1.2857919303E-03    1.2694043600E-03
    1.2532268440E-03    1.2372566689E-03    1.2214911566E-03    1.2059276640E-03
    1.1905635824E-03    1.1753963373E-03    1.1604233877E-03    1.1456422258E-03
    1.1310503764E-03    1.1166453968E-03    1.1024248759E-03    1.0883864341E-03
    1.0745277231E-03    1.0608464247E-03    1.0473402513E-03    1.0340069450E-03
    1.0208442771E-03    1.0078500483E-03    9.9502208752E-04    9.8235825226E-04
    9.6985642776E-04    9.5751452679E-04    9.4533048930E-04    9.3330228200E-04
    9.2142789806E-04    9.0970535676E-04    8.9813270310E-04    8.8670800751E-04
    8.7542936548E-04    8.6429489726E-04    8.5330274752E-04    8.4245108502E-04
    8.3173810230E-04    8.2116201538E-04    8.1072106342E-04    8.0041350845E-04
    7.9023763506E-04    7.8019175008E-04    7.7027418232E-04    7.6048328227E-04
    7.5081742180E-04    7.4127499390E-04    7.3185441239E-04    7.2255411166E-04
    7.1337254637E-04    7.0430819123E-04    6.9535954071E-04    6.8652510876E-04
    6.7780342860E-04    6.6919305244E-04    6.6069255124E-04    6.5230051445E-04
    6.4401554979E-04    6.3583628299E-04    6.2776135757E-04    6.1978943460E-04
    6.1191919247E-04    6.0414932666E-04    5.9647854953E-04    5.8890559009E-04
    5.8142919377E-04    5.7404812223E-04    5.6676115314E-04    5.5956707994E-04
    5.5246471169E-04    5.4545287282E-04    5.3853040296E-04    5.3169615671E-04
    5.2494900347E-04    5.1828782725E-04    5.1171152643E-04    5.0521901367E-04
    4.9880921560E-04    4.9248107276E-04    4.8623353931E-04    4.8006558294E-04
    4.7397618465E-04    4.6796433856E-04    4.6202905179E-04    4.5616934425E-04
    4.5038424849E-04    4.4467280953E-04    4.3903408470E-04    4.3346714348E-04
    4.2797106733E-04    4.2254494957E-04    4.1718789518E-04    4.1189902068E-04
    4.0667745396E-04    4.0152233415E-04    3.9643281146E-04    3.9140804705E-04
    3.8644721286E-04    3.8154949150E-04    3.7671407612E-04    3.7194017021E-04
    3.6722698755E-04    3.6257375200E-04    3.5797969745E-04    3.5344406760E-04
    3.4896611590E-04    3.4454510539E-04    3.4018030859E-04    3.3587100738E-04
    3.3161649287E-04    3.2741606527E-04    3.2326903380E-04    3.1917471653E-04
    3.1513244034E-04    3.1114154071E-04    3.0720136168E-04    3.0331125573E-04
    2.9947058361E-04    2.9567871434E-04    2.9193502499E-04    2.8823890066E-04
    2.8458973434E-04    2.8098692680E-04    2.7742988651E-04    2.7391802952E-04
    2.7045077940E-04    2.6702756710E-04    2.6364783087E-04    2.6031101616E-04
    2.5701657555E-04    2.5376396863E-04    2.5055266193E-04    2.4738212881E-04
    2.4425184940E-04    2.4116131047E-04    2.3811000539E-04    2.3509743402E-04
    2.3212310262E-04    2.2918652380E-04    2.2628721639E-04    2.2342470541E-04
    2.2059852195E-04    2.1780820310E-04    2.1505329191E-04    2.1233333725E-04
    2.0964789379E-04    2.0699652189E-04    2.0437878755E-04    2.0179426232E-04
    1.9924252323E-04    1.9672315275E-04    1.9423573866E-04    1.9177987405E-04
    1.8935515718E-04    1.8696119149E-04    1.8459758548E-04    1.8226395264E-04
    1.7995991143E-04    1.7768508518E-04    1.7543910204E-04    1.7322159492E-04
    1.7103220142E-04    1.6887056377E-04    1.6673632879E-04    1.6462914780E-04
    1.6254867658E-04    1.6049457533E-04    1.5846650858E-04    1.5646414512E-04
    1.5448715803E-04    1.5253522452E-04    1.5060802595E-04    1.4870524775E-04
    1.4682657935E-04    1.4497171417E-04    1.4314034953E-04    1.4133218663E-04
    1.3954693049E-04    1.3778428987E-04    1.3604397728E-04    1.3432570888E-04
    1.3262920448E-04    1.3095418743E-04    1.2930038463E-04    1.2766752649E-04
    1.2605534683E-04    1.2446358287E-04    1.2289197520E-04    1.2134026771E-04
    1.1980820756E-04    1.1829554513E-04    1.1680203400E-04    1.1532743088E-04
    1.1387149559E-04    1.1243399102E-04    1.1101468306E-04    1.0961334062E-04
    1.0822973553E-04    1.0686364255E-04    1.0551483929E-04    1.0418310622E-04
    1.0286822658E-04    1.0156998641E-04    1.0028817445E-04    9.9022582145E-05
    9.7773003588E-05    9.6539235506E-05    9.5321077214E-05    9.4118330584E-05
    9.2930800014E-05    9.1758292392E-05    9.0600617068E-05    8.9457585822E-05
    8.8329012830E-05    8.7214714636E-05    8.6114510122E-05    8.5028220474E-05
    8.3955669159E-05    8.2896681889E-05    8.1851086598E-05    8.0818713409E-05
    7.9799394610E-05    7.8792964624E-05    7.7799259981E-05    7.6818119293E-05
    7.5849383225E-05    7.4892894473E-05    7.3948497732E-05    7.3016039677E-05
    7.2095368931E-05    7.1186336045E-05    7.0288793473E-05    6.9402595545E-05
    6.8527598443E-05    6.7663660183E-05    6.6810640583E-05    6.5968401247E-05
    6.5136805538E-05    6.4315718558E-05    6.3505007125E-05    6.2704539749E-05
    6.1914186615E-05    6.1133819557E-05    6.0363312039E-05    5.9602539135E-05
    5.8851377505E-05    5.8109705380E-05    5.7377402538E-05    5.6654350285E-05
    5.5940431436E-05    5.5235530295E-05    5.4539532638E-05    5.3852325692E-05
    5.3173798117E-05    5.2503839988E-05    5.1842342777E-05    5.1189199335E-05
    5.0544303876E-05    4.9907551954E-05    4.9278840455E-05    4.8658067572E-05
    4.8045132792E-05    4.7439936878E-05    4.6842381855E-05    4.6252370992E-05
    4.5669808786E-05    4.5094600948E-05    4.4526654384E-05    4.3965877186E-05
    4.3412178609E-05    4.2865469063E-05    4.2325660096E-05    4.1792664375E-05
    4.1266395681E-05    4.0746768886E-05    4.0233699944E-05    3.9727105876E-05
    3.9226904755E-05    3.8733015695E-05    3.8245358836E-05    3.7763855332E-05
    3.7288427338E-05    3.6818997996E-05    3.6355491423E-05    3.5897832701E-05
    3.5445947859E-05    3.4999763868E-05    3.4559208623E-05    3.4124210935E-05
    3.3694700518E-05    3.3270607978E-05    3.2851864801E-05    3.2438403340E-05
    3.2030156809E-05    3.1627059267E-05    3.1229045610E-05    3.0836051561E-05
    3.0448013655E-05    3.0064869234E-05    2.9686556434E-05    2.9313014176E-05
    2.8944182153E-05    2.8580000827E-05    2.8220411409E-05    2.7865355861E-05
    2.7514776876E-05    2.7168617877E-05    2.6826823002E-05    2.6489337098E-05
    2.6156105710E-05    2.5827075074E-05    2.5502192107E-05    2.5181404399E-05
    2.4864660204E-05    2.4551908432E-05    2.4243098638E-05    2.3938181021E-05
    2.3637106406E-05    2.3339826244E-05    2.3046292600E-05    2.2756458146E-05
    2.2470276154E-05    2.2187700488E-05    2.1908685595E-05    2.1633186502E-05
    2.1361158803E-05    2.1092558654E-05    2.0827342769E-05    2.0565468407E-05
    2.0306893370E-05    2.0051575995E-05    1.9799475145E-05    1.9550550205E-05
    1.9304761073E-05    1.9062068156E-05    1.8822432360E-05    1.8585815090E-05
    1.8352178236E-05    1.8121484171E-05    1.7893695746E-05    1.7668776280E-05
    1.7446689557E-05    1.7227399821E-05    1.7010871767E-05    1.6797070536E-05
    1.6585961712E-05    1.6377511314E-05    1.6171685789E-05    1.5968452012E-05
    1.5767777274E-05    1.5569629282E-05    1.5373976150E-05    1.5180786397E-05
    1.4990028939E-05    1.4801673085E-05    1.4615688534E-05    1.4432045367E-05
    1.4250714043E-05    1.4071665396E-05    1.3894870627E-05    1.3720301304E-05
    1.3547929351E-05    1.3377727051E-05    1.3209667034E-05    1.3043722279E-05
    1.2879866104E-05    1.2718072167E-05    1.2558314456E-05    1.2400567292E-05
    1.2244805317E-05    1.2091003495E-05    1.1939137107E-05    1.1789181746E-05
    1.1641113313E-05    1.1494908014E-05    1.1350542356E-05    1.1207993143E-05
    1.1067237472E-05    1.0928252730E-05    1.0791016589E-05    1.0655507003E-05
    1.0521702206E-05    1.0389580705E-05    1.0259121281E-05    1.0130302982E-05
    1.0003105119E-05    9.8775072674E-06    9.7534892591E-06    9.6310311811E-06
    9.5101133718E-06    9.3907164182E-06    9.2728211524E-06    9.1564086489E-06
    9.0414602210E-06    8.9279574182E-06    8.8158820229E-06    8.7052160479E-06
    8.5959417329E-06    8.4880415421E-06    8.3814981610E-06    8.2762944939E-06
    8.1724136610E-06    8.0698389956E-06    7.9685540416E-06    7.8685425505E-06
    7.7697884792E-06    7.6722759869E-06    7.5759894330E-06    7.4809133744E-06
    7.3870325630E-06    7.2943319429E-06    7.2027966487E-06    7.1124120023E-06
    7.0231635112E-06    6.9350368657E-06    6.8480179366E-06    6.7620927733E-06
    6.6772476012E-06    6.5934688193E-06    6.5107429988E-06    6.4290568798E-06
    6.3483973703E-06    6.2687515429E-06    6.1901066340E-06    6.1124500406E-06
    6.0357693189E-06    5.9600521820E-06    5.8852864984E-06    5.8114602892E-06
    5.7385617269E-06    5.6665791332E-06    5.5955009771E-06    5.5253158731E-06
    5.4560125794E-06    5.3875799959E-06    5.3200071625E-06    5.2532832575E-06
    5.1873975956E-06    5.1223396264E-06    5.0580989324E-06    4.9946652277E-06
    4.9320283558E-06    4.8701782887E-06    4.8091051246E-06    4.7487990867E-06
    4.6892505215E-06    4.6304498970E-06    4.5723878017E-06    4.5150549427E-06
    4.4584421442E-06    4.4025403461E-06    4.3473406026E-06    4.2928340806E-06
    4.2390120586E-06    4.1858659247E-06    4.1333871759E-06    4.0815674161E-06
    4.0303983553E-06    3.9798718079E-06    3.9299796914E-06    3.8807140253E-06
    3.8320669296E-06    3.7840306238E-06    3.7365974253E-06    3.6897597483E-06
    3.6435101028E-06    3.5978410929E-06    3.5527454162E-06    3.5082158622E-06
    3.4642453112E-06    3.4208267334E-06    3.3779531874E-06    3.3356178194E-06
    3.2938138618E-06    3.2525346324E-06    3.2117735332E-06    3.1715240493E-06
    3.1317797479E-06    3.0925342771E-06    3.0537813653E-06    3.0155148196E-06
    2.9777285253E-06    2.9404164448E-06    2.9035726163E-06    2.8671911533E-06
    2.8312662434E-06    2.7957921473E-06    2.7607631983E-06    2.7261738007E-06
    2.6920184294E-06    2.6582916290E-06    2.6249880127E-06    2.5921022616E-06
    2.5596291237E-06    2.5275634131E-06    2.4959000094E-06    2.4646338566E-06
 </PP_RHOATOM>
 <PP_TAUMOD type="real"  size="1232" columns="4">
    5.1622569641E+00    5.1606927732E+00    5.1560021801E+00    5.1481911223E+00
    5.1372694879E+00    5.1232511054E+00    5.1061537283E+00    5.0859990160E+00
    5.0628125094E+00    5.0366236037E+00    5.0074655153E+00    4.9753752456E+00
    4.9403935396E+00    4.9025648409E+00    4.8619372419E+00    4.8185624299E+00
    4.7724956288E+00    4.7237955364E+00    4.6725242579E+00    4.6187472339E+00
    4.5625331658E+00    4.5039539353E+00    4.4430845204E+00    4.3800029070E+00
    4.3147899959E+00    4.2475295059E+00    4.1783078723E+00    4.1072141409E+00
    4.0343398584E+00    3.9597789576E+00    3.8836276388E+00    3.8059842469E+00
    3.7269491440E+00    3.6466245777E+00    3.5651145450E+00    3.4825246524E+00
    3.3989619711E+00    3.3145348877E+00    3.2293529517E+00    3.1435267173E+00
    3.0571675818E+00    2.9703876197E+00    2.8832994114E+00    2.7960158693E+00
    2.7086500580E+00    2.6213150112E+00    2.5341235437E+00    2.4471880596E+00
    2.3606203556E+00    2.2745314204E+00    2.1890312298E+00    2.1042285370E+00
    2.0202306595E+00    1.9371432604E+00    1.8550701267E+00    1.7741129423E+00
    1.6943710574E+00    1.6159412530E+00    1.5389175012E+00    1.4633907217E+00
    1.3894485334E+00    1.3171750019E+00    1.2466503826E+00    1.1779508596E+00
    1.1111482804E+00    1.0463098857E+00    9.8349803577E-01    9.2276993175E-01
    8.6417733297E-01    8.0776626996E-01    7.5357675301E-01    7.0164247654E-01
    6.5199051907E-01    6.0464103894E-01    5.5960696563E-01    5.1689368684E-01
    4.7649873123E-01    4.3841144681E-01    4.0261267509E-01    3.6907442080E-01
    3.3775951742E-01    3.0862128830E-01    2.8160320348E-01    2.5663853227E-01
    2.3364999137E-01    2.1254938882E-01    1.9323726356E-01    1.7560252063E-01
    1.5952206260E-01    1.4486108848E-01    1.3148422055E-01    1.1927006493E-01
    1.0811129062E-01    9.7912720298E-02    8.8589698858E-02    8.0066701253E-02
    7.2276142165E-02    6.5157354399E-02    5.8655708292E-02    5.2721849599E-02
    4.7311037868E-02    4.2382570933E-02    3.7899284008E-02    3.3827113916E-02
    3.0134720581E-02    2.6793159031E-02    2.3775596036E-02    2.1057066231E-02
    1.8614263110E-02    1.6425360834E-02    1.4469863218E-02    1.2728476713E-02
    1.1183004549E-02    9.8162595932E-03    8.6119937632E-03    7.5548421256E-03
    6.6302800478E-03    5.8245919816E-03    5.1248506336E-03    4.5189054301E-03
    3.9953793170E-03    3.5436730587E-03    3.1539763080E-03    2.8172848317E-03
    2.5254233842E-03    2.2710738272E-03    2.0478082028E-03    1.8501265666E-03
    1.6734994835E-03    1.5144151810E-03    1.3704313114E-03    1.2401159984E-03
    1.1222569475E-03    1.0156574692E-03    9.1923619905E-04    8.3201619213E-04
    7.5311477608E-04    6.8173440500E-04    6.1715440530E-04    5.5872352607E-04
    5.0585321527E-04    4.5801155072E-04    4.1471776186E-04    3.7553728433E-04
    3.4007729543E-04    3.0798268329E-04    2.7893240740E-04    2.5263621239E-04
    2.2883166039E-04    2.0728145105E-04    1.8777100116E-04    1.7010625849E-04
    1.5411172720E-04    1.3962868409E-04    1.2651356729E-04    1.1463652049E-04
    1.0388007774E-04    9.4137975047E-05    8.5314076656E-05    7.7321404676E-05
    7.0081262230E-05    6.3522440972E-05    5.7580504843E-05    5.2197142693E-05
    4.7319583094E-05    4.2900065371E-05    3.8895361389E-05    3.5266343216E-05
    3.1977592248E-05    2.8997045778E-05    2.6295677409E-05    2.3847208077E-05
    2.1627844696E-05    1.9616043803E-05    1.7792297792E-05    1.6138941557E-05
    1.4639977599E-05    1.3280917809E-05    1.2048640351E-05    1.0931260171E-05
    9.9180118493E-06    8.9991435997E-06    8.1658213577E-06    7.4100419877E-06
    6.7245547404E-06    6.1027901712E-06    5.5387958074E-06    5.0271779203E-06
    4.5630488201E-06    4.1419791467E-06    3.7599546813E-06    3.4133372466E-06
    3.0988293093E-06    2.8134419297E-06    2.5544657425E-06    2.3194446795E-06
    2.1061521740E-06    1.9125696119E-06    1.7368668160E-06    1.5773843702E-06
    1.4326176102E-06    1.3012021227E-06    1.1819006090E-06    1.0735909858E-06
    9.7525560516E-07    8.8597148730E-07    8.0490147217E-07    7.3128620140E-07
    6.6443685321E-07    6.0372855893E-07    5.4859443695E-07    4.9852018591E-07
    4.5303918437E-07    4.1172804941E-07    3.7420261093E-07    3.4011426251E-07
    3.0914665349E-07    2.8101269020E-07    2.5545181731E-07    2.3222755298E-07
    2.1112525405E-07    1.9195008967E-07    1.7452520387E-07    1.5869004928E-07
    1.4429887612E-07    1.3121936178E-07    1.1933136799E-07    1.0852581349E-07
    9.8703651563E-08    8.9774942540E-08    8.1658012426E-08    7.4278689641E-08
    6.7569612573E-08    6.1469601337E-08    5.5923087770E-08    5.0879598228E-08
    4.6293284283E-08    4.2122496850E-08    3.8329399716E-08    3.4879618802E-08
    3.1741923844E-08    2.8887939478E-08    2.6291882999E-08    2.3930326333E-08
    2.1781979949E-08    1.9827496715E-08    1.8049293811E-08    1.6431391063E-08
    1.4959264150E-08    1.3619711327E-08    1.2400732402E-08    1.1291418846E-08
    1.0281853997E-08    9.3630224315E-09    8.5267276552E-09    7.7655173518E-09
    7.0726154820E-09    6.4418606117E-09    5.8676498893E-09    5.3448881553E-09
    4.8689417100E-09    4.4355963125E-09    4.0410190204E-09    3.6817235182E-09
    3.3545386137E-09    3.0565796118E-09    2.7852223011E-09    2.5380793145E-09
    2.3129786452E-09    2.1079441210E-09    1.9211776583E-09    1.7510431314E-09
    1.5960517105E-09    1.4548485334E-09    1.3262005892E-09    1.2089857038E-09
    1.1021825250E-09    1.0048614181E-09    9.1617618703E-10    8.3535654695E-10
    7.6170127897E-10    6.9457200558E-10    6.3338752977E-10    5.7761868665E-10
    5.2678366106E-10    4.8044372856E-10    4.3819938164E-10    3.9968680576E-10
    3.6457467383E-10    3.3256122997E-10    3.0337163640E-10    2.7675555961E-10
    2.5248497410E-10    2.3035216395E-10    2.1016790441E-10    1.9175980710E-10
    1.7497081407E-10    1.5965782728E-10    1.4569046124E-10    1.3294990770E-10
    1.2132790223E-10    1.1072578354E-10    1.0105363721E-10    9.2229516100E-11
    8.4178730676E-11    7.6833202836E-11    7.0130877597E-11    6.4015187400E-11
    5.8434564317E-11    5.3341995847E-11    4.8694620386E-11    4.4453358816E-11
    4.0582578962E-11    3.7049789974E-11    3.3825363950E-11    3.0882282362E-11
    2.8195905059E-11    2.5743759824E-11    2.3505350658E-11    2.1461983105E-11
    1.9596605093E-11    1.7893661920E-11    1.6338964105E-11    1.4919566966E-11
    1.3623660876E-11    1.2440471244E-11    1.1360167359E-11    1.0373779303E-11
    9.4731222112E-12    8.6507272422E-12    7.8997786392E-12    7.2140563577E-12
    6.5878837585E-12    6.0160799168E-12    5.4939161387E-12    5.0170763113E-12
    4.5816207474E-12    4.1839532140E-12    3.8207908642E-12    3.4891368138E-12
    3.1862551304E-12    2.9096480202E-12    2.6570350198E-12    2.4263340143E-12
    2.2156439216E-12    2.0232288962E-12    1.8475039169E-12    1.6870216382E-12
    1.5404603928E-12    1.4066132452E-12    1.2843780021E-12    1.1727480967E-12
    1.0708042707E-12    9.7770698161E-13    8.9268947388E-13    8.1505145491E-13
    7.4415332222E-13    6.7941089433E-13    6.2029060074E-13    5.6630509088E-13
    5.1700922540E-13    4.7199641636E-13    4.3089528563E-13    3.9336661396E-13
    3.5910055509E-13    3.2781409185E-13    2.9924871319E-13    2.7316829272E-13
    2.4935715133E-13    2.2761828781E-13    2.0777176277E-13    1.8965322267E-13
    1.7311255156E-13    1.5801263967E-13    1.4422825849E-13    1.3164503320E-13
    1.2015850400E-13    1.0967326858E-13    1.0010219871E-13    9.1365724600E-14
    8.3391181017E-14    7.6112209959E-14    6.9468214903E-14    6.3403862195E-14
    5.7868625519E-14    5.2816369694E-14    4.8204970434E-14    4.3995966939E-14
    4.0154244510E-14    3.6647744572E-14    3.3447199763E-14    3.0525891908E-14
    2.7859430937E-14    2.5425552907E-14    2.3203935448E-14    2.1176029310E-14
    1.9324903804E-14    1.7635109764E-14    1.6092544367E-14    1.4684331618E-14
    1.3398736637E-14    1.2225099438E-14    1.1153724447E-14    1.0175762214E-14
    9.2831215201E-15    8.4684054237E-15    7.7248533692E-15    7.0462866723E-15
    6.4270590019E-15    5.8620109551E-15    5.3464284644E-15    4.8760047150E-15
    4.4468052791E-15    4.0552362024E-15    3.6980147936E-15    3.3721428925E-15
    3.0748824104E-15    2.8037329499E-15    2.5564113319E-15    2.3308328678E-15
    2.1250942311E-15    1.9374577929E-15    1.7663372978E-15    1.6102847672E-15
    1.4679785258E-15    1.3382122556E-15    1.2198849912E-15    1.1119919753E-15
    1.0136163022E-15    9.2392128103E-16    8.4214345813E-16    7.6758624183E-16
    6.9961407852E-16    6.3764713219E-16    5.8115642478E-16    5.2965939751E-16
    4.8271585726E-16    4.3992427470E-16    4.0091840379E-16    3.6536419529E-16
    3.3295697860E-16    3.0341888904E-16    2.7649651901E-16    2.5195877400E-16
    2.2959491555E-16    2.0921277506E-16    1.9063712347E-16    1.7370818341E-16
    1.5828027149E-16    1.4422055935E-16    1.3140794305E-16    1.1973201158E-16
    1.0909210568E-16    9.9396459202E-17    9.0561415757E-17    8.2510714097E-17
    7.5174836252E-17    6.8490412915E-17    6.2399681058E-17    5.6849989232E-17
    5.1793346401E-17    4.7186010439E-17    4.2988112848E-17    3.9163316527E-17
    3.5678503707E-17    3.2503491343E-17    2.9610771612E-17    2.6975275312E-17
    2.4574156105E-17    2.2386593811E-17    2.0393615056E-17    1.8577929775E-17
    1.6923782135E-17    1.5416814634E-17    1.4043944217E-17    1.2793249345E-17
    1.1653867031E-17    1.0615899005E-17    9.6703261747E-18    8.8089306451E-18
    8.0242246518E-18    7.3093857865E-18    6.6581979526E-18    6.0649975526E-18
    5.5246244475E-18    5.0323772581E-18    4.5839726277E-18    4.1755080986E-18
    3.8034282813E-18    3.4644940198E-18    3.1557542952E-18    2.8745206239E-18
    2.6183437229E-18    2.3849922485E-18    2.1724334253E-18    1.9788153891E-18
    1.8024511016E-18    1.6418036942E-18    1.4954731109E-18    1.3621839387E-18
    1.2407743216E-18    1.1301858567E-18    1.0294543888E-18    9.3770162575E-19
    8.5412749575E-19    7.7800318605E-19    7.0866480107E-19    6.4550758302E-19
    5.8798064715E-19    5.3558218627E-19    4.8785510025E-19    4.4438301514E-19
    4.0478665718E-19    3.6872054806E-19    3.3586999515E-19    3.0594834986E-19
    2.7869450913E-19    2.5387064004E-19    2.3126010698E-19    2.1066558277E-19
    1.9217676914E-19    1.7395315448E-19    1.5740247804E-19    1.5538776914E-19
    1.2781921713E-19    3.8536490941E-20   -1.2532994695E-20   -1.5121141630E-21
    2.6877435754E-21   -2.3503743017E-22   -1.4617728447E-22    0.0000000000E+00
    0.0000000000E+00    0.0000000000E+00    0.0000000000E+00    0.0000000000E+00
    0.0000000000E+00    0.0000000000E+00    0.0000000000E+00    0.0000000000E+00
    0.0000000000E+00    0.0000000000E+00    0.0000000000E+00    0.0000000000E+00
    0.0000000000E+00    0.0000000000E+00    0.0000000000E+00    0.0000000000E+00
    0.0000000000E+00    0.0000000000E+00    0.0000000000E+00    0.0000000000E+00
    0.0000000000E+00    0.0000000000E+00    0.0000000000E+00    0.0000000000E+00
    0.0000000000E+00    0.0000000000E+00    0.0000000000E+00    0.0000000000E+00
    0.0000000000E+00    0.0000000000E+00    0.0000000000E+00    0.0000000000E+00
    0.0000000000E+00    0.0000000000E+00    0.0000000000E+00    0.0000000000E+00
    0.0000000000E+00    0.0000000000E+00    0.0000000000E+00    0.0000000000E+00
    0.0000000000E+00    0.0000000000E+00    0.0000000000E+00    0.0000000000E+00
    0.0000000000E+00    0.0000000000E+00    0.0000000000E+00    0.0000000000E+00
    0.0000000000E+00    0.0000000000E+00    0.0000000000E+00    0.0000000000E+00
    0.0000000000E+00    0.0000000000E+00    0.0000000000E+00    0.0000000000E+00
    0.0000000000E+00    0.0000000000E+00    0.0000000000E+00    0.0000000000E+00
    0.0000000000E+00    0.0000000000E+00    0.0000000000E+00    0.0000000000E+00
    0.0000000000E+00    0.0000000000E+00    0.0000000000E+00    0.0000000000E+00
    0.0000000000E+00    0.0000000000E+00    0.0000000000E+00    0.0000000000E+00
    0.0000000000E+00    0.0000000000E+00    0.0000000000E+00    0.0000000000E+00
    0.0000000000E+00    0.0000000000E+00    0.0000000000E+00    0.0000000000E+00
    0.0000000000E+00    0.0000000000E+00    0.0000000000E+00    0.0000000000E+00
    0.0000000000E+00    0.0000000000E+00    0.0000000000E+00    0.0000000000E+00
    0.0000000000E+00    0.0000000000E+00    0.0000000000E+00    0.0000000000E+00
    0.0000000000E+00    0.0000000000E+00    0.0000000000E+00    0.0000000000E+00
    0.0000000000E+00    0.0000000000E+00    0.0000000000E+00    0.0000000000E+00
    0.0000000000E+00    0.0000000000E+00    0.0000000000E+00    0.0000000000E+00
    0.0000000000E+00    0.0000000000E+00    0.0000000000E+00    0.0000000000E+00
    0.0000000000E+00    0.0000000000E+00    0.0000000000E+00    0.0000000000E+00
    0.0000000000E+00    0.0000000000E+00    0.0000000000E+00    0.0000000000E+00
    0.0000000000E+00    0.0000000000E+00    0.0000000000E+00    0.0000000000E+00
    0.0000000000E+00    0.0000000000E+00    0.0000000000E+00    0.0000000000E+00
    0.0000000000E+00    0.0000000000E+00    0.0000000000E+00    0.0000000000E+00
    0.0000000000E+00    0.0000000000E+00    0.0000000000E+00    0.0000000000E+00
    0.0000000000E+00    0.0000000000E+00    0.0000000000E+00    0.0000000000E+00
    0.0000000000E+00    0.0000000000E+00    0.0000000000E+00    0.0000000000E+00
    0.0000000000E+00    0.0000000000E+00    0.0000000000E+00    0.0000000000E+00
    0.0000000000E+00    0.0000000000E+00    0.0000000000E+00    0.0000000000E+00
    0.0000000000E+00    0.0000000000E+00    0.0000000000E+00    0.0000000000E+00
    0.0000000000E+00    0.0000000000E+00    0.0000000000E+00    0.0000000000E+00
    0.0000000000E+00    0.0000000000E+00    0.0000000000E+00    0.0000000000E+00
    0.0000000000E+00    0.0000000000E+00    0.0000000000E+00    0.0000000000E+00
    0.0000000000E+00    0.0000000000E+00    0.0000000000E+00    0.0000000000E+00
    0.0000000000E+00    0.0000000000E+00    0.0000000000E+00    0.0000000000E+00
    0.0000000000E+00    0.0000000000E+00    0.0000000000E+00    0.0000000000E+00
    0.0000000000E+00    0.0000000000E+00    0.0000000000E+00    0.0000000000E+00
    0.0000000000E+00    0.0000000000E+00    0.0000000000E+00    0.0000000000E+00
    0.0000000000E+00    0.0000000000E+00    0.0000000000E+00    0.0000000000E+00
    0.0000000000E+00    0.0000000000E+00    0.0000000000E+00    0.0000000000E+00
    0.0000000000E+00    0.0000000000E+00    0.0000000000E+00    0.0000000000E+00
    0.0000000000E+00    0.0000000000E+00    0.0000000000E+00    0.0000000000E+00
    0.0000000000E+00    0.0000000000E+00    0.0000000000E+00    0.0000000000E+00
    0.0000000000E+00    0.0000000000E+00    0.0000000000E+00    0.0000000000E+00
    0.0000000000E+00    0.0000000000E+00    0.0000000000E+00    0.0000000000E+00
    0.0000000000E+00    0.0000000000E+00    0.0000000000E+00    0.0000000000E+00
    0.0000000000E+00    0.0000000000E+00    0.0000000000E+00    0.0000000000E+00
    0.0000000000E+00    0.0000000000E+00    0.0000000000E+00    0.0000000000E+00
    0.0000000000E+00    0.0000000000E+00    0.0000000000E+00    0.0000000000E+00
    0.0000000000E+00    0.0000000000E+00    0.0000000000E+00    0.0000000000E+00
    0.0000000000E+00    0.0000000000E+00    0.0000000000E+00    0.0000000000E+00
    0.0000000000E+00    0.0000000000E+00    0.0000000000E+00    0.0000000000E+00
    0.0000000000E+00    0.0000000000E+00    0.0000000000E+00    0.0000000000E+00
    0.0000000000E+00    0.0000000000E+00    0.0000000000E+00    0.0000000000E+00
    0.0000000000E+00    0.0000000000E+00    0.0000000000E+00    0.0000000000E+00
    0.0000000000E+00    0.0000000000E+00    0.0000000000E+00    0.0000000000E+00
    0.0000000000E+00    0.0000000000E+00    0.0000000000E+00    0.0000000000E+00
    0.0000000000E+00    0.0000000000E+00    0.0000000000E+00    0.0000000000E+00
    0.0000000000E+00    0.0000000000E+00    0.0000000000E+00    0.0000000000E+00
    0.0000000000E+00    0.0000000000E+00    0.0000000000E+00    0.0000000000E+00
    0.0000000000E+00    0.0000000000E+00    0.0000000000E+00    0.0000000000E+00
    0.0000000000E+00    0.0000000000E+00    0.0000000000E+00    0.0000000000E+00
    0.0000000000E+00    0.0000000000E+00    0.0000000000E+00    0.0000000000E+00
    0.0000000000E+00    0.0000000000E+00    0.0000000000E+00    0.0000000000E+00
    0.0000000000E+00    0.0000000000E+00    0.0000000000E+00    0.0000000000E+00
    0.0000000000E+00    0.0000000000E+00    0.0000000000E+00    0.0000000000E+00
    0.0000000000E+00    0.0000000000E+00    0.0000000000E+00    0.0000000000E+00
    0.0000000000E+00    0.0000000000E+00    0.0000000000E+00    0.0000000000E+00
    0.0000000000E+00    0.0000000000E+00    0.0000000000E+00    0.0000000000E+00
    0.0000000000E+00    0.0000000000E+00    0.0000000000E+00    0.0000000000E+00
    0.0000000000E+00    0.0000000000E+00    0.0000000000E+00    0.0000000000E+00
    0.0000000000E+00    0.0000000000E+00    0.0000000000E+00    0.0000000000E+00
    0.0000000000E+00    0.0000000000E+00    0.0000000000E+00    0.0000000000E+00
    0.0000000000E+00    0.0000000000E+00    0.0000000000E+00    0.0000000000E+00
    0.0000000000E+00    0.0000000000E+00    0.0000000000E+00    0.0000000000E+00
    0.0000000000E+00    0.0000000000E+00    0.0000000000E+00    0.0000000000E+00
    0.0000000000E+00    0.0000000000E+00    0.0000000000E+00    0.0000000000E+00
    0.0000000000E+00    0.0000000000E+00    0.0000000000E+00    0.0000000000E+00
    0.0000000000E+00    0.0000000000E+00    0.0000000000E+00    0.0000000000E+00
    0.0000000000E+00    0.0000000000E+00    0.0000000000E+00    0.0000000000E+00
    0.0000000000E+00    0.0000000000E+00    0.0000000000E+00    0.0000000000E+00
    0.0000000000E+00    0.0000000000E+00    0.0000000000E+00    0.0000000000E+00
    0.0000000000E+00    0.0000000000E+00    0.0000000000E+00    0.0000000000E+00
    0.0000000000E+00    0.0000000000E+00    0.0000000000E+00    0.0000000000E+00
    0.0000000000E+00    0.0000000000E+00    0.0000000000E+00    0.0000000000E+00
    0.0000000000E+00    0.0000000000E+00    0.0000000000E+00    0.0000000000E+00
    0.0000000000E+00    0.0000000000E+00    0.0000000000E+00    0.0000000000E+00
    0.0000000000E+00    0.0000000000E+00    0.0000000000E+00    0.0000000000E+00
    0.0000000000E+00    0.0000000000E+00    0.0000000000E+00    0.0000000000E+00
    0.0000000000E+00    0.0000000000E+00    0.0000000000E+00    0.0000000000E+00
    0.0000000000E+00    0.0000000000E+00    0.0000000000E+00    0.0000000000E+00
    0.0000000000E+00    0.0000000000E+00    0.0000000000E+00    0.0000000000E+00
    0.0000000000E+00    0.0000000000E+00    0.0000000000E+00    0.0000000000E+00
    0.0000000000E+00    0.0000000000E+00    0.0000000000E+00    0.0000000000E+00
    0.0000000000E+00    0.0000000000E+00    0.0000000000E+00    0.0000000000E+00
    0.0000000000E+00    0.0000000000E+00    0.0000000000E+00    0.0000000000E+00
    0.0000000000E+00    0.0000000000E+00    0.0000000000E+00    0.0000000000E+00
    0.0000000000E+00    0.0000000000E+00    0.0000000000E+00    0.0000000000E+00
    0.0000000000E+00    0.0000000000E+00    0.0000000000E+00    0.0000000000E+00
    0.0000000000E+00    0.0000000000E+00    0.0000000000E+00    0.0000000000E+00
    0.0000000000E+00    0.0000000000E+00    0.0000000000E+00    0.0000000000E+00
    0.0000000000E+00    0.0000000000E+00    0.0000000000E+00    0.0000000000E+00
    0.0000000000E+00    0.0000000000E+00    0.0000000000E+00    0.0000000000E+00
    0.0000000000E+00    0.0000000000E+00    0.0000000000E+00    0.0000000000E+00
    0.0000000000E+00    0.0000000000E+00    0.0000000000E+00    0.0000000000E+00
    0.0000000000E+00    0.0000000000E+00    0.0000000000E+00    0.0000000000E+00
    0.0000000000E+00    0.0000000000E+00    0.0000000000E+00    0.0000000000E+00
    0.0000000000E+00    0.0000000000E+00    0.0000000000E+00    0.0000000000E+00
    0.0000000000E+00    0.0000000000E+00    0.0000000000E+00    0.0000000000E+00
    0.0000000000E+00    0.0000000000E+00    0.0000000000E+00    0.0000000000E+00
    0.0000000000E+00    0.0000000000E+00    0.0000000000E+00    0.0000000000E+00
    0.0000000000E+00    0.0000000000E+00    0.0000000000E+00    0.0000000000E+00
    0.0000000000E+00    0.0000000000E+00    0.0000000000E+00    0.0000000000E+00
    0.0000000000E+00    0.0000000000E+00    0.0000000000E+00    0.0000000000E+00
    0.0000000000E+00    0.0000000000E+00    0.0000000000E+00    0.0000000000E+00
    0.0000000000E+00    0.0000000000E+00    0.0000000000E+00    0.0000000000E+00
    0.0000000000E+00    0.0000000000E+00    0.0000000000E+00    0.0000000000E+00
    0.0000000000E+00    0.0000000000E+00    0.0000000000E+00    0.0000000000E+00
    0.0000000000E+00    0.0000000000E+00    0.0000000000E+00    0.0000000000E+00
    0.0000000000E+00    0.0000000000E+00    0.0000000000E+00    0.0000000000E+00
    0.0000000000E+00    0.0000000000E+00    0.0000000000E+00    0.0000000000E+00
    0.0000000000E+00    0.0000000000E+00    0.0000000000E+00    0.0000000000E+00
    0.0000000000E+00    0.0000000000E+00    0.0000000000E+00    0.0000000000E+00
    0.0000000000E+00    0.0000000000E+00    0.0000000000E+00    0.0000000000E+00
    0.0000000000E+00    0.0000000000E+00    0.0000000000E+00    0.0000000000E+00
    0.0000000000E+00    0.0000000000E+00    0.0000000000E+00    0.0000000000E+00
    0.0000000000E+00    0.0000000000E+00    0.0000000000E+00    0.0000000000E+00
    0.0000000000E+00    0.0000000000E+00    0.0000000000E+00    0.0000000000E+00
    0.0000000000E+00    0.0000000000E+00    0.0000000000E+00    0.0000000000E+00
    0.0000000000E+00    0.0000000000E+00    0.0000000000E+00    0.0000000000E+00
    0.0000000000E+00    0.0000000000E+00    0.0000000000E+00    0.0000000000E+00
    0.0000000000E+00    0.0000000000E+00    0.0000000000E+00    0.0000000000E+00
    0.0000000000E+00    0.0000000000E+00    0.0000000000E+00    0.0000000000E+00
    0.0000000000E+00    0.0000000000E+00    0.0000000000E+00    0.0000000000E+00
    0.0000000000E+00    0.0000000000E+00    0.0000000000E+00    0.0000000000E+00
    0.0000000000E+00    0.0000000000E+00    0.0000000000E+00    0.0000000000E+00
    0.0000000000E+00    0.0000000000E+00    0.0000000000E+00    0.0000000000E+00
    0.0000000000E+00    0.0000000000E+00    0.0000000000E+00    0.0000000000E+00
    0.0000000000E+00    0.0000000000E+00    0.0000000000E+00    0.0000000000E+00
    0.0000000000E+00    0.0000000000E+00    0.0000000000E+00    0.0000000000E+00
    0.0000000000E+00    0.0000000000E+00    0.0000000000E+00    0.0000000000E+00
    0.0000000000E+00    0.0000000000E+00    0.0000000000E+00    0.0000000000E+00
    0.0000000000E+00    0.0000000000E+00    0.0000000000E+00    0.0000000000E+00
    0.0000000000E+00    0.0000000000E+00    0.0000000000E+00    0.0000000000E+00
    0.0000000000E+00    0.0000000000E+00    0.0000000000E+00    0.0000000000E+00
    0.0000000000E+00    0.0000000000E+00    0.0000000000E+00    0.0000000000E+00
    0.0000000000E+00    0.0000000000E+00    0.0000000000E+00    0.0000000000E+00
    0.0000000000E+00    0.0000000000E+00    0.0000000000E+00    0.0000000000E+00
    0.0000000000E+00    0.0000000000E+00    0.0000000000E+00    0.0000000000E+00
    0.0000000000E+00    0.0000000000E+00    0.0000000000E+00    0.0000000000E+00
    0.0000000000E+00    0.0000000000E+00    0.0000000000E+00    0.0000000000E+00
    0.0000000000E+00    0.0000000000E+00    0.0000000000E+00    0.0000000000E+00
    0.0000000000E+00    0.0000000000E+00    0.0000000000E+00    0.0000000000E+00
    0.0000000000E+00    0.0000000000E+00    0.0000000000E+00    0.0000000000E+00
    0.0000000000E+00    0.0000000000E+00    0.0000000000E+00    0.0000000000E+00
    0.0000000000E+00    0.0000000000E+00    0.0000000000E+00    0.0000000000E+00
    0.0000000000E+00    0.0000000000E+00    0.0000000000E+00    0.0000000000E+00
    0.0000000000E+00    0.0000000000E+00    0.0000000000E+00    0.0000000000E+00
    0.0000000000E+00    0.0000000000E+00    0.0000000000E+00    0.0000000000E+00
    0.0000000000E+00    0.0000000000E+00    0.0000000000E+00    0.0000000000E+00
    0.0000000000E+00    0.0000000000E+00    0.0000000000E+00    0.0000000000E+00
    0.0000000000E+00    0.0000000000E+00    0.0000000000E+00    0.0000000000E+00
    0.0000000000E+00    0.0000000000E+00    0.0000000000E+00    0.0000000000E+00
    0.0000000000E+00    0.0000000000E+00    0.0000000000E+00    0.0000000000E+00
    0.0000000000E+00    0.0000000000E+00    0.0000000000E+00    0.0000000000E+00
    0.0000000000E+00    0.0000000000E+00    0.0000000000E+00    0.0000000000E+00
    0.0000000000E+00    0.0000000000E+00    0.0000000000E+00    0.0000000000E+00
 </PP_TAUMOD>
 <PP_TAUATOM type="real"  size="1232" columns="4">
    1.7018560448E+00    1.7009802455E+00    1.6983557947E+00    1.6939915226E+00
    1.6879021020E+00    1.6801079831E+00    1.6706353004E+00    1.6595157543E+00
    1.6467864649E+00    1.6324897995E+00    1.6166731733E+00    1.5993888232E+00
    1.5806935551E+00    1.5606484656E+00    1.5393186388E+00    1.5167728185E+00
    1.4930830581E+00    1.4683243497E+00    1.4425742344E+00    1.4159123954E+00
    1.3884202388E+00    1.3601804628E+00    1.3312766202E+00    1.3017926771E+00
    1.2718125726E+00    1.2414197823E+00    1.2106968902E+00    1.1797251736E+00
    1.1485842038E+00    1.1173514678E+00    1.0861020132E+00    1.0549081211E+00
    1.0238390088E+00    9.9296056498E-01    9.6233511993E-01    9.3202125214E-01
    9.0207363185E-01    8.7254290242E-01    8.4347559924E-01    8.1491410544E-01
    7.8689664341E-01    7.5945730015E-01    7.3262608465E-01    7.0642901458E-01
    6.8088822954E-01    6.5602212798E-01    6.3184552422E-01    6.0836982261E-01
    5.8560320518E-01    5.6355082965E-01    5.4221503444E-01    5.2159554773E-01
    5.0168969765E-01    4.8249262100E-01    4.6399746831E-01    4.4619560307E-01
    4.2907679360E-01    4.1262939607E-01    3.9684052782E-01    3.8169623010E-01
    3.6718161989E-01    3.5328103057E-01    3.3997814165E-01    3.2725609765E-01
    3.1509761667E-01    3.0348508928E-01    2.9240066823E-01    2.8182634988E-01
    2.7174404795E-01    2.6213566053E-01    2.5298313084E-01    2.4426850263E-01
    2.3597397083E-01    2.2808192775E-01    2.2057500573E-01    2.1343611615E-01
    2.0664848547E-01    2.0019568832E-01    1.9406167783E-01    1.8823081325E-01
    1.8268788492E-01    1.7741813662E-01    1.7240728500E-01    1.6764153641E-01
    1.6310760064E-01    1.5879270188E-01    1.5468458650E-01    1.5077152794E-01
    1.4704232843E-01    1.4348631784E-01    1.4009334955E-01    1.3685379352E-01
    1.3375852680E-01    1.3079892158E-01    1.2796683105E-01    1.2525457335E-01
    1.2265491387E-01    1.2016104618E-01    1.1776657197E-01    1.1546548015E-01
    1.1325212556E-01    1.1112120751E-01    1.0906774834E-01    1.0708707230E-01
    1.0517478503E-01    1.0332675357E-01    1.0153908737E-01    9.9808120185E-02
    9.8130392953E-02    9.6502637912E-02    9.4921763781E-02    9.3384842157E-02
    9.1889095101E-02    9.0431883927E-02    8.9010699175E-02    8.7623151779E-02
    8.6266965388E-02    8.4939969855E-02    8.3640095854E-02    8.2365370617E-02
    8.1113914763E-02    7.9883940189E-02    7.8673748986E-02    7.7481733328E-02
    7.6306376264E-02    7.5146253351E-02    7.4000034994E-02    7.2866489414E-02
    7.1744486076E-02    7.0632999420E-02    6.9531112666E-02    6.8438109270E-02
    6.7353858394E-02    6.6278443068E-02    6.5211968519E-02    6.4154557669E-02
    6.3106347070E-02    6.2067483173E-02    6.1038119002E-02    6.0018411225E-02
    5.9008517623E-02    5.8008594918E-02    5.7018796935E-02    5.6039273071E-02
    5.5070167035E-02    5.4111615816E-02    5.3163748867E-02    5.2226687458E-02
    5.1300544179E-02    5.0385422576E-02    4.9481416895E-02    4.8588611918E-02
    4.7707082873E-02    4.6836895424E-02    4.5978105700E-02    4.5130760389E-02
    4.4294896865E-02    4.3470543352E-02    4.2657719116E-02    4.1856434683E-02
    4.1066692085E-02    4.0288485108E-02    3.9521799570E-02    3.8766613600E-02
    3.8022897927E-02    3.7290616182E-02    3.6569725195E-02    3.5860175301E-02
    3.5161910645E-02    3.4474869483E-02    3.3798984487E-02    3.3134183043E-02
    3.2480387551E-02    3.1837515706E-02    3.1205480794E-02    3.0584191965E-02
    2.9973554509E-02    2.9373470121E-02    2.8783837158E-02    2.8204550893E-02
    2.7635503760E-02    2.7076585582E-02    2.6527683807E-02    2.5988683724E-02
    2.5459468672E-02    2.4939920248E-02    2.4429918496E-02    2.3929342099E-02
    2.3438068558E-02    2.2955974360E-02    2.2482935141E-02    2.2018825849E-02
    2.1563520884E-02    2.1116894245E-02    2.0678819661E-02    2.0249170721E-02
    1.9827820995E-02    1.9414644144E-02    1.9009514033E-02    1.8612304829E-02
    1.8222891102E-02    1.7841147912E-02    1.7466950814E-02    1.7100176233E-02
    1.6740701131E-02    1.6388403315E-02    1.6043161461E-02    1.5704855169E-02
    1.5373365018E-02    1.5048572621E-02    1.4730360664E-02    1.4418612962E-02
    1.4113214487E-02    1.3814051416E-02    1.3521011155E-02    1.3233982376E-02
    1.2952855043E-02    1.2677520432E-02    1.2407871160E-02    1.2143801198E-02
    1.1885205891E-02    1.1631981972E-02    1.1384027574E-02    1.1141242238E-02
    1.0903526925E-02    1.0670784019E-02    1.0442917334E-02    1.0219832114E-02
    1.0001435039E-02    9.7876342171E-03    9.5783391917E-03    9.3734609325E-03
    9.1729118341E-03    8.9766057098E-03    8.7844577861E-03    8.5963846947E-03
    8.4123044651E-03    8.2321365148E-03    8.0558016400E-03    7.8832220049E-03
    7.7143211306E-03    7.5490238828E-03    7.3872564612E-03    7.2289463603E-03
    7.0740224285E-03    6.9224148000E-03    6.7740548477E-03    6.6288752298E-03
    6.4868098523E-03    6.3477938541E-03    6.2117635920E-03    6.0786566245E-03
    5.9484116964E-03    5.8209687225E-03    5.6962687712E-03    5.5742540490E-03
    5.4548678831E-03    5.3380547056E-03    5.2237600370E-03    5.1119304694E-03
    5.0025136501E-03    4.8954582653E-03    4.7907140232E-03    4.6882316381E-03
    4.5879628134E-03    4.4898602258E-03    4.3938775089E-03    4.2999692370E-03
    4.2080909091E-03    4.1181989329E-03    4.0302506092E-03    3.9442041160E-03
    3.8600184932E-03    3.7776536269E-03    3.6970702345E-03    3.6182298493E-03
    3.5410948057E-03    3.4656282247E-03    3.3917939988E-03    3.3195567779E-03
    3.2488819552E-03    3.1797356526E-03    3.1120847075E-03    3.0458966587E-03
    2.9811397329E-03    2.9177828314E-03    2.8557955173E-03    2.7951480021E-03
    2.7358111332E-03    2.6777563813E-03    2.6209558280E-03    2.5653821538E-03
    2.5110086259E-03    2.4578090866E-03    2.4057579415E-03    2.3548301484E-03
    2.3050012056E-03    2.2562471416E-03    2.2085445034E-03    2.1618703467E-03
    2.1162022247E-03    2.0715181784E-03    2.0277967261E-03    1.9850168535E-03
    1.9431580044E-03    1.9022000706E-03    1.8621233827E-03    1.8229087010E-03
    1.7845372063E-03    1.7469904911E-03    1.7102505508E-03    1.6742997755E-03
    1.6391209410E-03    1.6046972010E-03    1.5710120790E-03    1.5380494605E-03
    1.5057935848E-03    1.4742290379E-03    1.4433407447E-03    1.4131139618E-03
    1.3835342706E-03    1.3545875699E-03    1.3262600690E-03    1.2985382813E-03
    1.2714090176E-03    1.2448593794E-03    1.2188767528E-03    1.1934488021E-03
    1.1685634638E-03    1.1442089408E-03    1.1203736962E-03    1.0970464480E-03
    1.0742161631E-03    1.0518720522E-03    1.0300035640E-03    1.0086003802E-03
    9.8765241056E-04    9.6714978734E-04    9.4708286073E-04    9.2744219391E-04
    9.0821855829E-04    8.8940292894E-04    8.7098647995E-04    8.5296058010E-04
    8.3531678843E-04    8.1804684999E-04    8.0114269173E-04    7.8459641833E-04
    7.6840030831E-04    7.5254681004E-04    7.3702853794E-04    7.2183826877E-04
    7.0696893795E-04    6.9241363595E-04    6.7816560486E-04    6.6421823488E-04
    6.5056506105E-04    6.3719975992E-04    6.2411614638E-04    6.1130817052E-04
    5.9876991457E-04    5.8649558992E-04    5.7447953420E-04    5.6271620843E-04
    5.5120019421E-04    5.3992619106E-04    5.2888901369E-04    5.1808358948E-04
    5.0750495591E-04    4.9714825810E-04    4.8700874641E-04    4.7708177411E-04
    4.6736279504E-04    4.5784736143E-04    4.4853112172E-04    4.3940981842E-04
    4.3047928604E-04    4.2173544909E-04    4.1317432016E-04    4.0479199791E-04
    3.9658466532E-04    3.8854858781E-04    3.8068011150E-04    3.7297566148E-04
    3.6543174015E-04    3.5804492560E-04    3.5081187001E-04    3.4372929812E-04
    3.3679400570E-04    3.3000285814E-04    3.2335278900E-04    3.1684079859E-04
    3.1046395271E-04    3.0421938128E-04    2.9810427706E-04    2.9211589442E-04
    2.8625154816E-04    2.8050861228E-04    2.7488451886E-04    2.6937675707E-04
    2.6398287181E-04    2.5870046148E-04    2.5352717507E-04    2.4846071091E-04
    2.4349881580E-04    2.3863928428E-04    2.3387995748E-04    2.2921872223E-04
    2.2465351012E-04    2.2018229652E-04    2.1580309976E-04    2.1151398019E-04
    2.0731303934E-04    2.0319841906E-04    1.9916830066E-04    1.9522090415E-04
    1.9135448737E-04    1.8756734524E-04    1.8385780896E-04    1.8022424530E-04
    1.7666505577E-04    1.7317867600E-04    1.6976357492E-04    1.6641825411E-04
    1.6314124713E-04    1.5993111880E-04    1.5678646456E-04    1.5370590983E-04
    1.5068810936E-04    1.4773174662E-04    1.4483553318E-04    1.4199820812E-04
    1.3921853745E-04    1.3649531352E-04    1.3382735446E-04    1.3121350365E-04
    1.2865262917E-04    1.2614362324E-04    1.2368540177E-04    1.2127690380E-04
    1.1891709102E-04    1.1660494728E-04    1.1433947813E-04    1.1211971034E-04
    1.0994469144E-04    1.0781348930E-04    1.0572519165E-04    1.0367890569E-04
    1.0167375766E-04    9.9708892433E-05    9.7783473093E-05    9.5896680570E-05
    9.4047713241E-05    9.2235786556E-05    9.0460132671E-05    8.8720000087E-05
    8.7014653298E-05    8.5343372445E-05    8.3705452978E-05    8.2100205327E-05
    8.0526954575E-05    7.8985040147E-05    7.7473815496E-05    7.5992647801E-05
    7.4540917672E-05    7.3118018857E-05    7.1723357961E-05    7.0356354166E-05
    6.9016438962E-05    6.7703055879E-05    6.6415660226E-05    6.5153718839E-05
    6.3916709831E-05    6.2704122349E-05    6.1515456334E-05    6.0350222289E-05
    5.9207941054E-05    5.8088143575E-05    5.6990370695E-05    5.5914172935E-05
    5.4859110286E-05    5.3824752006E-05    5.2810676418E-05    5.1816470717E-05
    5.0841730777E-05    4.9886060966E-05    4.8949073960E-05    4.8030390567E-05
    4.7129639549E-05    4.6246457454E-05    4.5380488446E-05    4.4531384142E-05
    4.3698803452E-05    4.2882412421E-05    4.2081884077E-05    4.1296898282E-05
    4.0527141582E-05    3.9772307065E-05    3.9032094222E-05    3.8306208808E-05
    3.7594362709E-05    3.6896273808E-05    3.6211665860E-05    3.5540268364E-05
    3.4881816440E-05    3.4236050710E-05    3.3602717179E-05    3.2981567121E-05
    3.2372356966E-05    3.1774848189E-05    3.1188807205E-05    3.0614005258E-05
    3.0050218326E-05    2.9497227013E-05    2.8954816453E-05    2.8422776216E-05
    2.7900900209E-05    2.7388986587E-05    2.6886837662E-05    2.6394259812E-05
    2.5911063401E-05    2.5437062686E-05    2.4972075742E-05    2.4515924375E-05
    2.4068434048E-05    2.3629433801E-05    2.3198756173E-05    2.2776237132E-05
    2.2361716002E-05    2.1955035389E-05    2.1556041115E-05    2.1164582148E-05
    2.0780510535E-05    2.0403681341E-05    2.0033952582E-05    1.9671185161E-05
    1.9315242814E-05    1.8965992044E-05    1.8623302064E-05    1.8287044744E-05
    1.7957094550E-05    1.7633328493E-05    1.7315626073E-05    1.7003869231E-05
    1.6697942292E-05    1.6397731921E-05    1.6103127070E-05    1.5814018932E-05
    1.5530300893E-05    1.5251868487E-05    1.4978619352E-05    1.4710453184E-05
    1.4447271697E-05    1.4188978577E-05    1.3935479446E-05    1.3686681815E-05
    1.3442495054E-05    1.3202830343E-05    1.2967600644E-05    1.2736720655E-05
    1.2510106783E-05    1.2287677101E-05    1.2069351319E-05    1.1855050747E-05
    1.1644698261E-05    1.1438218276E-05    1.1235536707E-05    1.1036580944E-05
    1.0841279819E-05    1.0649563576E-05    1.0461363842E-05    1.0276613602E-05
    1.0095247164E-05    9.9172001390E-06    9.7424094101E-06    9.5708131077E-06
    9.4023505838E-06    9.2369623869E-06    9.0745902375E-06    8.9151770042E-06
    8.7586666804E-06    8.6050043608E-06    8.4541362195E-06    8.3060094876E-06
    8.1605724318E-06    8.0177743334E-06    7.8775654674E-06    7.7398970824E-06
    7.6047213810E-06    7.4719915001E-06    7.3416614923E-06    7.2136863070E-06
    7.0880217723E-06    6.9646245773E-06    6.8434522548E-06    6.7244631639E-06
    6.6076164735E-06    6.4928721460E-06    6.3801909213E-06    6.2695343007E-06
    6.1608645323E-06    6.0541445955E-06    5.9493381860E-06    5.8464097023E-06
    5.7453242307E-06    5.6460475318E-06    5.5485460273E-06    5.4527867861E-06
    5.3587375121E-06    5.2663665307E-06    5.1756427770E-06    5.0865357833E-06
    4.9990156673E-06    4.9130531203E-06    4.8286193959E-06    4.7456862987E-06
    4.6642261734E-06    4.5842118939E-06    4.5056168531E-06    4.4284149522E-06
    4.3525805909E-06    4.2780886574E-06    4.2049145187E-06    4.1330340110E-06
    4.0624234310E-06    3.9930595259E-06    3.9249194851E-06    3.8579809314E-06
    3.7922219124E-06    3.7276208918E-06    3.6641567419E-06    3.6018087349E-06
    3.5405565354E-06    3.4803801924E-06    3.4212601321E-06    3.3631771502E-06
    3.3061124050E-06    3.2500474098E-06    3.1949640264E-06    3.1408444578E-06
    3.0876712423E-06    3.0354272461E-06    2.9840956574E-06    2.9336599799E-06
    2.8841040269E-06    2.8354119150E-06    2.7875680584E-06    2.7405571628E-06
    2.6943642201E-06    2.6489745028E-06    2.6043735582E-06    2.5605472036E-06
    2.5174815204E-06    2.4751628498E-06    2.4335777871E-06    2.3927131770E-06
    2.3525561090E-06    2.3130939123E-06    2.2743141514E-06    2.2362046217E-06
    2.1987533446E-06    2.1619485636E-06    2.1257787399E-06    2.0902325482E-06
    2.0552988722E-06    2.0209668015E-06    1.9872256268E-06    1.9540648363E-06
    1.9214741123E-06    1.8894433268E-06    1.8579625385E-06    1.8270219889E-06
    1.7966120988E-06    1.7667234650E-06    1.7373468570E-06    1.7084732136E-06
    1.6800936396E-06    1.6521994027E-06    1.6247819306E-06    1.5978328078E-06
    1.5713437724E-06    1.5453067137E-06    1.5197136689E-06    1.4945568205E-06
    1.4698284934E-06    1.4455211524E-06    1.4216273995E-06    1.3981399711E-06
    1.3750517359E-06    1.3523556919E-06    1.3300449643E-06    1.3081128031E-06
    1.2865525805E-06    1.2653577889E-06    1.2445220384E-06    1.2240390548E-06
    1.2039026772E-06    1.1841068563E-06    1.1646456516E-06    1.1455132302E-06
    1.1267038639E-06    1.1082119282E-06    1.0900318996E-06    1.0721583539E-06
    1.0545859648E-06    1.0373095012E-06    1.0203238265E-06    1.0036238958E-06
    9.8720475493E-07    9.7106153852E-07    9.5518946825E-07    9.3958385134E-07
    9.2424007898E-07    9.0915362472E-07    8.9432004298E-07    8.7973496754E-07
    8.6539411006E-07    8.5129325868E-07    8.3742827656E-07    8.2379510053E-07
    8.1038973971E-07    7.9720827421E-07    7.8424685378E-07    7.7150169655E-07
    7.5896908779E-07    7.4664537864E-07    7.3452698493E-07    7.2261038596E-07
    7.1089212340E-07    6.9936880006E-07    6.8803707884E-07    6.7689368161E-07
    6.6593538810E-07    6.5515903491E-07    6.4456151440E-07    6.3413977371E-07
    6.2389081376E-07    6.1381168827E-07    6.0389950278E-07    5.9415141373E-07
    5.8456462753E-07    5.7513639962E-07    5.6586403364E-07    5.5674488050E-07
    5.4777633754E-07    5.3895584771E-07    5.3028089871E-07    5.2174902220E-07
    5.1335779301E-07    5.0510482833E-07    4.9698778698E-07    4.8900436864E-07
    4.8115231312E-07    4.7342939962E-07    4.6583344604E-07    4.5836230828E-07
    4.5101387955E-07    4.4378608969E-07    4.3667690454E-07    4.2968432526E-07
    4.2280638772E-07    4.1604116188E-07    4.0938675115E-07    4.0284129182E-07
    3.9640295246E-07    3.9006993335E-07    3.8384046588E-07    3.7771281205E-07
    3.7168526389E-07    3.6575614291E-07    3.5992379961E-07    3.5418661294E-07
    3.4854298981E-07    3.4299136455E-07    3.3753019850E-07    3.3215797944E-07
    3.2687322119E-07    3.2167446311E-07    3.1656026968E-07    3.1152923000E-07
    3.0657995741E-07    3.0171108902E-07    2.9692128534E-07    2.9220922979E-07
    2.8757362837E-07    2.8301320922E-07    2.7852672222E-07    2.7411293866E-07
    2.6977065080E-07    2.6549867154E-07    2.6129583403E-07    2.5716099134E-07
    2.5309301610E-07    2.4909080015E-07    2.4515325419E-07    2.4127930750E-07
    2.3746790753E-07    2.3371801968E-07    2.3002862690E-07    2.2639872943E-07
    2.2282734449E-07    2.1931350598E-07    2.1585626416E-07    2.1245468543E-07
    2.0910785199E-07    2.0581486156E-07    2.0257482718E-07    1.9938687685E-07
    1.9625015335E-07    1.9316381393E-07    1.9012703006E-07    1.8713898722E-07
    1.8419888464E-07    1.8130593504E-07    1.7845936440E-07    1.7565841177E-07
    1.7290232900E-07    1.7019038053E-07    1.6752184318E-07    1.6489600592E-07
    1.6231216968E-07    1.5976964713E-07    1.5726776248E-07    1.5480585129E-07
    1.5238326024E-07    1.4999934698E-07    1.4765347992E-07    1.4534503806E-07
    1.4307341078E-07    1.4083799767E-07    1.3863820840E-07    1.3647346245E-07
    1.3434318905E-07    1.3224682693E-07    1.3018382421E-07    1.2815363821E-07
    1.2615573528E-07    1.2418959070E-07    1.2225468847E-07    1.2035052118E-07
    1.1847658987E-07    1.1663240389E-07    1.1481748074E-07    1.1303134595E-07
    1.1127353290E-07    1.0954358277E-07    1.0784104430E-07    1.0616547377E-07
    1.0451643477E-07    1.0289349816E-07    1.0129624189E-07    9.9724250894E-08
    9.8177116999E-08    9.6654438768E-08    9.5155821405E-08    9.3680876642E-08
    9.2229222626E-08    9.0800483809E-08    8.9394290843E-08    8.8010280473E-08
    8.6648095438E-08    8.5307384363E-08    8.3987801665E-08    8.2689007453E-08
    8.1410667431E-08    8.0152452805E-08    7.8914040188E-08    7.7695111513E-08
    7.6495353936E-08    7.5314459757E-08    7.4152126324E-08    7.3008055957E-08
    7.1881955856E-08    7.0773538024E-08    6.9682519188E-08    6.8608620711E-08
    6.7551568523E-08    6.6511093041E-08    6.5486929092E-08    6.4478815843E-08
    6.3486496722E-08    6.2509719354E-08    6.1548235486E-08    6.0601800918E-08
    5.9670175436E-08    5.8753122748E-08    5.7850410412E-08    5.6961809780E-08
    5.6087095927E-08    5.5226047592E-08    5.4378447118E-08    5.3544080391E-08
    5.2722736780E-08    5.1914209079E-08    5.1118293450E-08    5.0334789370E-08
    4.9563499570E-08    4.8804229987E-08    4.8056789706E-08    4.7320990910E-08
    4.6596648826E-08    4.5883581680E-08    4.5181610642E-08    4.4490559777E-08
    4.3810256001E-08    4.3140529031E-08    4.2481211339E-08    4.1832138106E-08
    4.1193147178E-08    4.0564079022E-08    3.9944776680E-08    3.9335085731E-08
    3.8734854247E-08    3.8143932748E-08    3.7562174169E-08    3.6989433814E-08
    3.6425569319E-08    3.5870440615E-08    3.5323909887E-08    3.4785841542E-08
    3.4256102164E-08    3.3734560488E-08    3.3221087358E-08    3.2715555692E-08
    3.2217840455E-08    3.1727818616E-08    3.1245369121E-08    3.0770372860E-08
    3.0302712633E-08    2.9842273120E-08    2.9388940851E-08    2.8942604172E-08
    2.8503153222E-08    2.8070479895E-08    2.7644477820E-08    2.7225042325E-08
    2.6812070415E-08    2.6405460740E-08    2.6005113573E-08    2.5610930779E-08
    2.5222815790E-08    2.4840673583E-08    2.4464410650E-08    2.4093934975E-08
    2.3729156011E-08    2.3369984654E-08    2.3016333222E-08    2.2668115429E-08
    2.2325246364E-08    2.1987642469E-08    2.1655221515E-08    2.1327902582E-08
    2.1005606039E-08    2.0688253518E-08    2.0375767900E-08    2.0068073290E-08
    1.9765095000E-08    1.9466759527E-08    1.9172994536E-08    1.8883728839E-08
    1.8598892377E-08    1.8318416205E-08    1.8042232468E-08    1.7770274388E-08
    1.7502476245E-08    1.7238773359E-08    1.6979102075E-08    1.6723399747E-08
    1.6471604716E-08    1.6223656304E-08    1.5979494788E-08    1.5739061391E-08
    1.5502298264E-08    1.5269148473E-08    1.5039555983E-08    1.4813465642E-08
    1.4590823170E-08    1.4371575144E-08    1.4155668982E-08    1.3943052932E-08
    1.3733676056E-08    1.3527488222E-08    1.3324440084E-08    1.3124483076E-08
    1.2927569395E-08    1.2733651990E-08    1.2542684551E-08    1.2354621497E-08
    1.2169417962E-08    1.1987029786E-08    1.1807413503E-08    1.1630526330E-08
    1.1456326154E-08    1.1284771526E-08    1.1115821645E-08    1.0949436351E-08
    1.0785576114E-08    1.0624202024E-08    1.0465275780E-08    1.0308759682E-08
    1.0154616620E-08    1.0002810065E-08    9.8533040610E-09    9.7060632132E-09
    9.5610526815E-09    9.4182381704E-09    9.2775859208E-09    9.1390627012E-09
    9.0026357994E-09    8.8682730143E-09    8.7359426476E-09    8.6056134960E-09
    8.4772548431E-09    8.3508364521E-09    8.2263285574E-09    8.1037018580E-09
    7.9829275095E-09    7.8639771170E-09    7.7468227282E-09    7.6314368260E-09
    7.5177923220E-09    7.4058625493E-09    7.2956212562E-09    7.1870425992E-09
    7.0801011371E-09    6.9747718241E-09    6.8710300036E-09    6.7688514025E-09
    6.6682121246E-09    6.5690886449E-09    6.4714578038E-09    6.3752968010E-09
    6.2805831902E-09    6.1872948733E-09    6.0954100950E-09    6.0049074372E-09
    5.9157658140E-09    5.8279644661E-09    5.7414829558E-09    5.6563011623E-09
    5.5723992759E-09    5.4897577938E-09    5.4083575151E-09    5.3281795359E-09
    5.2492052445E-09    5.1714163173E-09    5.0947947138E-09    5.0193226724E-09
    4.9449827058E-09    4.8717575969E-09    4.7996303946E-09    4.7285844093E-09
    4.6586032091E-09    4.5896706157E-09    4.5217707001E-09    4.4548877792E-09
    4.3890064118E-09    4.3241113944E-09    4.2601877580E-09    4.1972207641E-09
    4.1351959012E-09    4.0740988814E-09    4.0139156366E-09    3.9546323151E-09
    3.8962352786E-09    3.8387110983E-09    3.7820465522E-09    3.7262286212E-09
    3.6712444866E-09    3.6170815265E-09    3.5637273130E-09    3.5111696091E-09
    3.4593963654E-09    3.4083957179E-09    3.3581559844E-09    3.3086656618E-09
    3.2599134238E-09    3.2118881175E-09    3.1645787612E-09    3.1179745411E-09
    3.0720648097E-09    3.0268390821E-09    2.9822870343E-09    2.9383985002E-09
    2.8951634693E-09    2.8525720845E-09    2.8106146394E-09    2.7692815759E-09
    2.7285634824E-09    2.6884510909E-09    2.6489352752E-09    2.6100070487E-09
    2.5716575617E-09    2.5338781001E-09    2.4966600826E-09    2.4599950590E-09
    2.4238747080E-09    2.3882908354E-09    2.3532353719E-09    2.3187003714E-09
    2.2846780087E-09    2.2511605782E-09    2.2181404916E-09    2.1856102761E-09
    2.1535625730E-09    2.1219901355E-09    2.0908858272E-09    2.0602426203E-09
    2.0300535940E-09    2.0003119327E-09    1.9710109246E-09    1.9421439600E-09
    1.9137045296E-09    1.8856862231E-09    1.8580827276E-09    1.8308878261E-09
    1.8040953961E-09    1.7776994080E-09    1.7516939240E-09    1.7260730960E-09
    1.7008311651E-09    1.6759624595E-09    1.6514613935E-09    1.6273224662E-09
    1.6035402601E-09    1.5801094396E-09    1.5570247504E-09    1.5342810174E-09
    1.5118731441E-09    1.4897961111E-09    1.4680449751E-09    1.4466148677E-09
    1.4255009940E-09    1.4046986317E-09    1.3842031301E-09    1.3640099086E-09
    1.3441144561E-09    1.3245123296E-09    1.3051991532E-09    1.2861706173E-09
    1.2674224772E-09    1.2489505524E-09    1.2307507257E-09    1.2128189419E-09
    1.1951512069E-09    1.1777435871E-09    1.1605922082E-09    1.1436932544E-09
    1.1270429672E-09    1.1106376451E-09    1.0944736422E-09    1.0785473676E-09
    1.0628552845E-09    1.0473939095E-09    1.0321598115E-09    1.0171496112E-09
    1.0023599801E-09    9.8778763982E-10    9.7342936141E-10    9.5928196441E-10
    9.4534231623E-10    9.3160733141E-10    9.1807397088E-10    9.0473924124E-10
    8.9160019413E-10    8.7865392547E-10    8.6589757481E-10    8.5332832468E-10
    8.4094339993E-10    8.2874006707E-10    8.1671563365E-10    8.0486744763E-10
    7.9319289678E-10    7.8168940805E-10    7.7035444698E-10    7.5918551714E-10
    7.4818015952E-10    7.3733595197E-10    7.2665050864E-10    7.1612147946E-10
    7.0574654953E-10    6.9552343865E-10    6.8544990076E-10    6.7552372343E-10
    6.6574272734E-10    6.5610476581E-10    6.4660772427E-10    6.3724951977E-10
    6.2802810055E-10    6.1894144551E-10    6.0998756377E-10    6.0116449422E-10
    5.9247030505E-10    5.8390309334E-10    5.7546098457E-10    5.6714213224E-10
    5.5894471741E-10    5.5086694832E-10    5.4290705994E-10    5.3506331359E-10
    5.2733399654E-10    5.1971742160E-10    5.1221192677E-10    5.0481587481E-10
    4.9752765291E-10    4.9034567229E-10    4.8326836788E-10    4.7629419789E-10
    4.6942164354E-10    4.6264920866E-10    4.5597541935E-10    4.4939882369E-10
    4.4291799133E-10    4.3653151326E-10    4.3023800141E-10    4.2403608836E-10
    4.1792442706E-10    4.1190169047E-10    4.0596657130E-10    4.0011778168E-10
    3.9435405290E-10    3.8867413511E-10    3.8307679701E-10    3.7756082562E-10
    3.7212502596E-10    3.6676822081E-10    3.6148925042E-10    3.5628697227E-10
    3.5116026077E-10    3.4610800707E-10    3.4112911876E-10    3.3622251963E-10
 </PP_TAUATOM>
</UPF>