4
pbc=[T, T, T] Lattice="3.18433460 0.00000000 -0.00000000 -1.59216730 2.75771466 0.00000000 0.00000000 -0.00000000 5.14647822" Properties=species:S:1:pos:R:3:velocities:R:3:Z:I:1
Zn         0.00000000       1.83847644      -0.08623729         0.00000000       0.00000000       0.00000000         30
Zn         1.59216730       0.91923822       2.48700182         0.00000000       0.00000000       0.00000000         30
O         0.00000000       1.83847644       1.86176948         0.00000000       0.00000000       0.00000000          8
O         1.59216730       0.91923822       4.43500859         0.00000000       0.00000000       0.00000000          8
