<UPF version="2.0.1">
  <PP_INFO>

 This pseudopotential file has been produced using the code
 METAPSP-1.0.0, a code for metagga functails adapted in 2024 from
 ONCVPSP  (Optimized Norm-Conservinng Vanderbilt PSeudopotential)
 scalar-relativistic version 4.0.1 06/04/2019 by D. R. Hamann
 The code is available through a link at URL www.mat-simresearch.com.
 Documentation with the package provides a full discription of the
 input data below.


 While it is not required under the terms of the GNU GPL, it is
 suggested that you cite D. R. Hamann, Phys. Rev. B 88, 085117 (2013)
 in any publication using these pseudopotentials.

    <PP_INPUTFILE>
# ATOM AND REFERENCE CONFIGURATION
# atsym  z   nc   nv     iexc    psfile
  Zn 30.00    3    4       5      upf
#
#   n    l    f        energy (Ha)
    1    0    2.00
    2    0    2.00
    2    1    6.00
    3    0    2.00
    3    1    6.00
    3    2   10.00
    4    0    2.00
#
# PSEUDOPOTENTIAL AND OPTIMIZATION
# lmax
    2
#
#   l,   rc,      ep,       ncon, nbas, qcut
    0   1.35000  -4.74920    4    9   8.80000
    1   1.65000  -3.06498    4    9   9.00000
    2   1.85000  -0.37265    4    9   9.00000
#
# LOCAL POTENTIAL
# lloc, lpopt,  rc(5),   dvloc0
    4    5   1.30000      0.00000
#
# VANDERBILT-KLEINMAN-BYLANDER PROJECTORs
# l, nproj, debl
    0    2   4.52948
    1    2   3.02399
    2    2   1.00000
#
# MODEL CORE CHARGE
# icmod, fcfact, rcfact
    5   3.00000   0.50000
#
# LOG DERIVATIVE ANALYSIS
# epsh1, epsh2, depsh
  -12.00   12.00    0.02
#
# OUTPUT GRID
# rlmax, drl
    6.00    0.01
#
# TEST CONFIGURATIONS
# ncnf
    0
# nvcnf
#   n    l    f
    </PP_INPUTFILE>
  </PP_INFO>
  <!--                               -->
  <!-- END OF HUMAN READABLE SECTION -->
  <!--                               -->
    <PP_HEADER
       generated="Generated using METAPSP code by D. R. Hamann"
       author="anonymous"
       date="260620"
       comment=""
       element="Zn"
       pseudo_type="NC"
       relativistic="scalar"
       is_ultrasoft="F"
       is_paw="F"
       is_coulomb="F"
       has_so="F"
       has_wfc="F"
       has_gipaw="F"
       core_correction="T"
       with_metagga_info="T"
       functional="R2SCAN01"
       z_valence="   20.00"
       total_psenergy="  -1.27677788783E+02"
       rho_cutoff="   1.28700000000E+01"
       l_max="2"
       l_local="-1"
       mesh_size="  1288"
       number_of_wfc="4"
       number_of_proj="6"/>
 <PP_MESH>
   <PP_R type="real"  size="1288" columns="8">
    0.0000    0.0100    0.0200    0.0300    0.0400    0.0500    0.0600    0.0700
    0.0800    0.0900    0.1000    0.1100    0.1200    0.1300    0.1400    0.1500
    0.1600    0.1700    0.1800    0.1900    0.2000    0.2100    0.2200    0.2300
    0.2400    0.2500    0.2600    0.2700    0.2800    0.2900    0.3000    0.3100
    0.3200    0.3300    0.3400    0.3500    0.3600    0.3700    0.3800    0.3900
    0.4000    0.4100    0.4200    0.4300    0.4400    0.4500    0.4600    0.4700
    0.4800    0.4900    0.5000    0.5100    0.5200    0.5300    0.5400    0.5500
    0.5600    0.5700    0.5800    0.5900    0.6000    0.6100    0.6200    0.6300
    0.6400    0.6500    0.6600    0.6700    0.6800    0.6900    0.7000    0.7100
    0.7200    0.7300    0.7400    0.7500    0.7600    0.7700    0.7800    0.7900
    0.8000    0.8100    0.8200    0.8300    0.8400    0.8500    0.8600    0.8700
    0.8800    0.8900    0.9000    0.9100    0.9200    0.9300    0.9400    0.9500
    0.9600    0.9700    0.9800    0.9900    1.0000    1.0100    1.0200    1.0300
    1.0400    1.0500    1.0600    1.0700    1.0800    1.0900    1.1000    1.1100
    1.1200    1.1300    1.1400    1.1500    1.1600    1.1700    1.1800    1.1900
    1.2000    1.2100    1.2200    1.2300    1.2400    1.2500    1.2600    1.2700
    1.2800    1.2900    1.3000    1.3100    1.3200    1.3300    1.3400    1.3500
    1.3600    1.3700    1.3800    1.3900    1.4000    1.4100    1.4200    1.4300
    1.4400    1.4500    1.4600    1.4700    1.4800    1.4900    1.5000    1.5100
    1.5200    1.5300    1.5400    1.5500    1.5600    1.5700    1.5800    1.5900
    1.6000    1.6100    1.6200    1.6300    1.6400    1.6500    1.6600    1.6700
    1.6800    1.6900    1.7000    1.7100    1.7200    1.7300    1.7400    1.7500
    1.7600    1.7700    1.7800    1.7900    1.8000    1.8100    1.8200    1.8300
    1.8400    1.8500    1.8600    1.8700    1.8800    1.8900    1.9000    1.9100
    1.9200    1.9300    1.9400    1.9500    1.9600    1.9700    1.9800    1.9900
    2.0000    2.0100    2.0200    2.0300    2.0400    2.0500    2.0600    2.0700
    2.0800    2.0900    2.1000    2.1100    2.1200    2.1300    2.1400    2.1500
    2.1600    2.1700    2.1800    2.1900    2.2000    2.2100    2.2200    2.2300
    2.2400    2.2500    2.2600    2.2700    2.2800    2.2900    2.3000    2.3100
    2.3200    2.3300    2.3400    2.3500    2.3600    2.3700    2.3800    2.3900
    2.4000    2.4100    2.4200    2.4300    2.4400    2.4500    2.4600    2.4700
    2.4800    2.4900    2.5000    2.5100    2.5200    2.5300    2.5400    2.5500
    2.5600    2.5700    2.5800    2.5900    2.6000    2.6100    2.6200    2.6300
    2.6400    2.6500    2.6600    2.6700    2.6800    2.6900    2.7000    2.7100
    2.7200    2.7300    2.7400    2.7500    2.7600    2.7700    2.7800    2.7900
    2.8000    2.8100    2.8200    2.8300    2.8400    2.8500    2.8600    2.8700
    2.8800    2.8900    2.9000    2.9100    2.9200    2.9300    2.9400    2.9500
    2.9600    2.9700    2.9800    2.9900    3.0000    3.0100    3.0200    3.0300
    3.0400    3.0500    3.0600    3.0700    3.0800    3.0900    3.1000    3.1100
    3.1200    3.1300    3.1400    3.1500    3.1600    3.1700    3.1800    3.1900
    3.2000    3.2100    3.2200    3.2300    3.2400    3.2500    3.2600    3.2700
    3.2800    3.2900    3.3000    3.3100    3.3200    3.3300    3.3400    3.3500
    3.3600    3.3700    3.3800    3.3900    3.4000    3.4100    3.4200    3.4300
    3.4400    3.4500    3.4600    3.4700    3.4800    3.4900    3.5000    3.5100
    3.5200    3.5300    3.5400    3.5500    3.5600    3.5700    3.5800    3.5900
    3.6000    3.6100    3.6200    3.6300    3.6400    3.6500    3.6600    3.6700
    3.6800    3.6900    3.7000    3.7100    3.7200    3.7300    3.7400    3.7500
    3.7600    3.7700    3.7800    3.7900    3.8000    3.8100    3.8200    3.8300
    3.8400    3.8500    3.8600    3.8700    3.8800    3.8900    3.9000    3.9100
    3.9200    3.9300    3.9400    3.9500    3.9600    3.9700    3.9800    3.9900
    4.0000    4.0100    4.0200    4.0300    4.0400    4.0500    4.0600    4.0700
    4.0800    4.0900    4.1000    4.1100    4.1200    4.1300    4.1400    4.1500
    4.1600    4.1700    4.1800    4.1900    4.2000    4.2100    4.2200    4.2300
    4.2400    4.2500    4.2600    4.2700    4.2800    4.2900    4.3000    4.3100
    4.3200    4.3300    4.3400    4.3500    4.3600    4.3700    4.3800    4.3900
    4.4000    4.4100    4.4200    4.4300    4.4400    4.4500    4.4600    4.4700
    4.4800    4.4900    4.5000    4.5100    4.5200    4.5300    4.5400    4.5500
    4.5600    4.5700    4.5800    4.5900    4.6000    4.6100    4.6200    4.6300
    4.6400    4.6500    4.6600    4.6700    4.6800    4.6900    4.7000    4.7100
    4.7200    4.7300    4.7400    4.7500    4.7600    4.7700    4.7800    4.7900
    4.8000    4.8100    4.8200    4.8300    4.8400    4.8500    4.8600    4.8700
    4.8800    4.8900    4.9000    4.9100    4.9200    4.9300    4.9400    4.9500
    4.9600    4.9700    4.9800    4.9900    5.0000    5.0100    5.0200    5.0300
    5.0400    5.0500    5.0600    5.0700    5.0800    5.0900    5.1000    5.1100
    5.1200    5.1300    5.1400    5.1500    5.1600    5.1700    5.1800    5.1900
    5.2000    5.2100    5.2200    5.2300    5.2400    5.2500    5.2600    5.2700
    5.2800    5.2900    5.3000    5.3100    5.3200    5.3300    5.3400    5.3500
    5.3600    5.3700    5.3800    5.3900    5.4000    5.4100    5.4200    5.4300
    5.4400    5.4500    5.4600    5.4700    5.4800    5.4900    5.5000    5.5100
    5.5200    5.5300    5.5400    5.5500    5.5600    5.5700    5.5800    5.5900
    5.6000    5.6100    5.6200    5.6300    5.6400    5.6500    5.6600    5.6700
    5.6800    5.6900    5.7000    5.7100    5.7200    5.7300    5.7400    5.7500
    5.7600    5.7700    5.7800    5.7900    5.8000    5.8100    5.8200    5.8300
    5.8400    5.8500    5.8600    5.8700    5.8800    5.8900    5.9000    5.9100
    5.9200    5.9300    5.9400    5.9500    5.9600    5.9700    5.9800    5.9900
    6.0000    6.0100    6.0200    6.0300    6.0400    6.0500    6.0600    6.0700
    6.0800    6.0900    6.1000    6.1100    6.1200    6.1300    6.1400    6.1500
    6.1600    6.1700    6.1800    6.1900    6.2000    6.2100    6.2200    6.2300
    6.2400    6.2500    6.2600    6.2700    6.2800    6.2900    6.3000    6.3100
    6.3200    6.3300    6.3400    6.3500    6.3600    6.3700    6.3800    6.3900
    6.4000    6.4100    6.4200    6.4300    6.4400    6.4500    6.4600    6.4700
    6.4800    6.4900    6.5000    6.5100    6.5200    6.5300    6.5400    6.5500
    6.5600    6.5700    6.5800    6.5900    6.6000    6.6100    6.6200    6.6300
    6.6400    6.6500    6.6600    6.6700    6.6800    6.6900    6.7000    6.7100
    6.7200    6.7300    6.7400    6.7500    6.7600    6.7700    6.7800    6.7900
    6.8000    6.8100    6.8200    6.8300    6.8400    6.8500    6.8600    6.8700
    6.8800    6.8900    6.9000    6.9100    6.9200    6.9300    6.9400    6.9500
    6.9600    6.9700    6.9800    6.9900    7.0000    7.0100    7.0200    7.0300
    7.0400    7.0500    7.0600    7.0700    7.0800    7.0900    7.1000    7.1100
    7.1200    7.1300    7.1400    7.1500    7.1600    7.1700    7.1800    7.1900
    7.2000    7.2100    7.2200    7.2300    7.2400    7.2500    7.2600    7.2700
    7.2800    7.2900    7.3000    7.3100    7.3200    7.3300    7.3400    7.3500
    7.3600    7.3700    7.3800    7.3900    7.4000    7.4100    7.4200    7.4300
    7.4400    7.4500    7.4600    7.4700    7.4800    7.4900    7.5000    7.5100
    7.5200    7.5300    7.5400    7.5500    7.5600    7.5700    7.5800    7.5900
    7.6000    7.6100    7.6200    7.6300    7.6400    7.6500    7.6600    7.6700
    7.6800    7.6900    7.7000    7.7100    7.7200    7.7300    7.7400    7.7500
    7.7600    7.7700    7.7800    7.7900    7.8000    7.8100    7.8200    7.8300
    7.8400    7.8500    7.8600    7.8700    7.8800    7.8900    7.9000    7.9100
    7.9200    7.9300    7.9400    7.9500    7.9600    7.9700    7.9800    7.9900
    8.0000    8.0100    8.0200    8.0300    8.0400    8.0500    8.0600    8.0700
    8.0800    8.0900    8.1000    8.1100    8.1200    8.1300    8.1400    8.1500
    8.1600    8.1700    8.1800    8.1900    8.2000    8.2100    8.2200    8.2300
    8.2400    8.2500    8.2600    8.2700    8.2800    8.2900    8.3000    8.3100
    8.3200    8.3300    8.3400    8.3500    8.3600    8.3700    8.3800    8.3900
    8.4000    8.4100    8.4200    8.4300    8.4400    8.4500    8.4600    8.4700
    8.4800    8.4900    8.5000    8.5100    8.5200    8.5300    8.5400    8.5500
    8.5600    8.5700    8.5800    8.5900    8.6000    8.6100    8.6200    8.6300
    8.6400    8.6500    8.6600    8.6700    8.6800    8.6900    8.7000    8.7100
    8.7200    8.7300    8.7400    8.7500    8.7600    8.7700    8.7800    8.7900
    8.8000    8.8100    8.8200    8.8300    8.8400    8.8500    8.8600    8.8700
    8.8800    8.8900    8.9000    8.9100    8.9200    8.9300    8.9400    8.9500
    8.9600    8.9700    8.9800    8.9900    9.0000    9.0100    9.0200    9.0300
    9.0400    9.0500    9.0600    9.0700    9.0800    9.0900    9.1000    9.1100
    9.1200    9.1300    9.1400    9.1500    9.1600    9.1700    9.1800    9.1900
    9.2000    9.2100    9.2200    9.2300    9.2400    9.2500    9.2600    9.2700
    9.2800    9.2900    9.3000    9.3100    9.3200    9.3300    9.3400    9.3500
    9.3600    9.3700    9.3800    9.3900    9.4000    9.4100    9.4200    9.4300
    9.4400    9.4500    9.4600    9.4700    9.4800    9.4900    9.5000    9.5100
    9.5200    9.5300    9.5400    9.5500    9.5600    9.5700    9.5800    9.5900
    9.6000    9.6100    9.6200    9.6300    9.6400    9.6500    9.6600    9.6700
    9.6800    9.6900    9.7000    9.7100    9.7200    9.7300    9.7400    9.7500
    9.7600    9.7700    9.7800    9.7900    9.8000    9.8100    9.8200    9.8300
    9.8400    9.8500    9.8600    9.8700    9.8800    9.8900    9.9000    9.9100
    9.9200    9.9300    9.9400    9.9500    9.9600    9.9700    9.9800    9.9900
   10.0000   10.0100   10.0200   10.0300   10.0400   10.0500   10.0600   10.0700
   10.0800   10.0900   10.1000   10.1100   10.1200   10.1300   10.1400   10.1500
   10.1600   10.1700   10.1800   10.1900   10.2000   10.2100   10.2200   10.2300
   10.2400   10.2500   10.2600   10.2700   10.2800   10.2900   10.3000   10.3100
   10.3200   10.3300   10.3400   10.3500   10.3600   10.3700   10.3800   10.3900
   10.4000   10.4100   10.4200   10.4300   10.4400   10.4500   10.4600   10.4700
   10.4800   10.4900   10.5000   10.5100   10.5200   10.5300   10.5400   10.5500
   10.5600   10.5700   10.5800   10.5900   10.6000   10.6100   10.6200   10.6300
   10.6400   10.6500   10.6600   10.6700   10.6800   10.6900   10.7000   10.7100
   10.7200   10.7300   10.7400   10.7500   10.7600   10.7700   10.7800   10.7900
   10.8000   10.8100   10.8200   10.8300   10.8400   10.8500   10.8600   10.8700
   10.8800   10.8900   10.9000   10.9100   10.9200   10.9300   10.9400   10.9500
   10.9600   10.9700   10.9800   10.9900   11.0000   11.0100   11.0200   11.0300
   11.0400   11.0500   11.0600   11.0700   11.0800   11.0900   11.1000   11.1100
   11.1200   11.1300   11.1400   11.1500   11.1600   11.1700   11.1800   11.1900
   11.2000   11.2100   11.2200   11.2300   11.2400   11.2500   11.2600   11.2700
   11.2800   11.2900   11.3000   11.3100   11.3200   11.3300   11.3400   11.3500
   11.3600   11.3700   11.3800   11.3900   11.4000   11.4100   11.4200   11.4300
   11.4400   11.4500   11.4600   11.4700   11.4800   11.4900   11.5000   11.5100
   11.5200   11.5300   11.5400   11.5500   11.5600   11.5700   11.5800   11.5900
   11.6000   11.6100   11.6200   11.6300   11.6400   11.6500   11.6600   11.6700
   11.6800   11.6900   11.7000   11.7100   11.7200   11.7300   11.7400   11.7500
   11.7600   11.7700   11.7800   11.7900   11.8000   11.8100   11.8200   11.8300
   11.8400   11.8500   11.8600   11.8700   11.8800   11.8900   11.9000   11.9100
   11.9200   11.9300   11.9400   11.9500   11.9600   11.9700   11.9800   11.9900
   12.0000   12.0100   12.0200   12.0300   12.0400   12.0500   12.0600   12.0700
   12.0800   12.0900   12.1000   12.1100   12.1200   12.1300   12.1400   12.1500
   12.1600   12.1700   12.1800   12.1900   12.2000   12.2100   12.2200   12.2300
   12.2400   12.2500   12.2600   12.2700   12.2800   12.2900   12.3000   12.3100
   12.3200   12.3300   12.3400   12.3500   12.3600   12.3700   12.3800   12.3900
   12.4000   12.4100   12.4200   12.4300   12.4400   12.4500   12.4600   12.4700
   12.4800   12.4900   12.5000   12.5100   12.5200   12.5300   12.5400   12.5500
   12.5600   12.5700   12.5800   12.5900   12.6000   12.6100   12.6200   12.6300
   12.6400   12.6500   12.6600   12.6700   12.6800   12.6900   12.7000   12.7100
   12.7200   12.7300   12.7400   12.7500   12.7600   12.7700   12.7800   12.7900
   12.8000   12.8100   12.8200   12.8300   12.8400   12.8500   12.8600   12.8700
   </PP_R>
   <PP_RAB type="real"  size="1288" columns="8">
    0.0100    0.0100    0.0100    0.0100    0.0100    0.0100    0.0100    0.0100
    0.0100    0.0100    0.0100    0.0100    0.0100    0.0100    0.0100    0.0100
    0.0100    0.0100    0.0100    0.0100    0.0100    0.0100    0.0100    0.0100
    0.0100    0.0100    0.0100    0.0100    0.0100    0.0100    0.0100    0.0100
    0.0100    0.0100    0.0100    0.0100    0.0100    0.0100    0.0100    0.0100
    0.0100    0.0100    0.0100    0.0100    0.0100    0.0100    0.0100    0.0100
    0.0100    0.0100    0.0100    0.0100    0.0100    0.0100    0.0100    0.0100
    0.0100    0.0100    0.0100    0.0100    0.0100    0.0100    0.0100    0.0100
    0.0100    0.0100    0.0100    0.0100    0.0100    0.0100    0.0100    0.0100
    0.0100    0.0100    0.0100    0.0100    0.0100    0.0100    0.0100    0.0100
    0.0100    0.0100    0.0100    0.0100    0.0100    0.0100    0.0100    0.0100
    0.0100    0.0100    0.0100    0.0100    0.0100    0.0100    0.0100    0.0100
    0.0100    0.0100    0.0100    0.0100    0.0100    0.0100    0.0100    0.0100
    0.0100    0.0100    0.0100    0.0100    0.0100    0.0100    0.0100    0.0100
    0.0100    0.0100    0.0100    0.0100    0.0100    0.0100    0.0100    0.0100
    0.0100    0.0100    0.0100    0.0100    0.0100    0.0100    0.0100    0.0100
    0.0100    0.0100    0.0100    0.0100    0.0100    0.0100    0.0100    0.0100
    0.0100    0.0100    0.0100    0.0100    0.0100    0.0100    0.0100    0.0100
    0.0100    0.0100    0.0100    0.0100    0.0100    0.0100    0.0100    0.0100
    0.0100    0.0100    0.0100    0.0100    0.0100    0.0100    0.0100    0.0100
    0.0100    0.0100    0.0100    0.0100    0.0100    0.0100    0.0100    0.0100
    0.0100    0.0100    0.0100    0.0100    0.0100    0.0100    0.0100    0.0100
    0.0100    0.0100    0.0100    0.0100    0.0100    0.0100    0.0100    0.0100
    0.0100    0.0100    0.0100    0.0100    0.0100    0.0100    0.0100    0.0100
    0.0100    0.0100    0.0100    0.0100    0.0100    0.0100    0.0100    0.0100
    0.0100    0.0100    0.0100    0.0100    0.0100    0.0100    0.0100    0.0100
    0.0100    0.0100    0.0100    0.0100    0.0100    0.0100    0.0100    0.0100
    0.0100    0.0100    0.0100    0.0100    0.0100    0.0100    0.0100    0.0100
    0.0100    0.0100    0.0100    0.0100    0.0100    0.0100    0.0100    0.0100
    0.0100    0.0100    0.0100    0.0100    0.0100    0.0100    0.0100    0.0100
    0.0100    0.0100    0.0100    0.0100    0.0100    0.0100    0.0100    0.0100
    0.0100    0.0100    0.0100    0.0100    0.0100    0.0100    0.0100    0.0100
    0.0100    0.0100    0.0100    0.0100    0.0100    0.0100    0.0100    0.0100
    0.0100    0.0100    0.0100    0.0100    0.0100    0.0100    0.0100    0.0100
    0.0100    0.0100    0.0100    0.0100    0.0100    0.0100    0.0100    0.0100
    0.0100    0.0100    0.0100    0.0100    0.0100    0.0100    0.0100    0.0100
    0.0100    0.0100    0.0100    0.0100    0.0100    0.0100    0.0100    0.0100
    0.0100    0.0100    0.0100    0.0100    0.0100    0.0100    0.0100    0.0100
    0.0100    0.0100    0.0100    0.0100    0.0100    0.0100    0.0100    0.0100
    0.0100    0.0100    0.0100    0.0100    0.0100    0.0100    0.0100    0.0100
    0.0100    0.0100    0.0100    0.0100    0.0100    0.0100    0.0100    0.0100
    0.0100    0.0100    0.0100    0.0100    0.0100    0.0100    0.0100    0.0100
    0.0100    0.0100    0.0100    0.0100    0.0100    0.0100    0.0100    0.0100
    0.0100    0.0100    0.0100    0.0100    0.0100    0.0100    0.0100    0.0100
    0.0100    0.0100    0.0100    0.0100    0.0100    0.0100    0.0100    0.0100
    0.0100    0.0100    0.0100    0.0100    0.0100    0.0100    0.0100    0.0100
    0.0100    0.0100    0.0100    0.0100    0.0100    0.0100    0.0100    0.0100
    0.0100    0.0100    0.0100    0.0100    0.0100    0.0100    0.0100    0.0100
    0.0100    0.0100    0.0100    0.0100    0.0100    0.0100    0.0100    0.0100
    0.0100    0.0100    0.0100    0.0100    0.0100    0.0100    0.0100    0.0100
    0.0100    0.0100    0.0100    0.0100    0.0100    0.0100    0.0100    0.0100
    0.0100    0.0100    0.0100    0.0100    0.0100    0.0100    0.0100    0.0100
    0.0100    0.0100    0.0100    0.0100    0.0100    0.0100    0.0100    0.0100
    0.0100    0.0100    0.0100    0.0100    0.0100    0.0100    0.0100    0.0100
    0.0100    0.0100    0.0100    0.0100    0.0100    0.0100    0.0100    0.0100
    0.0100    0.0100    0.0100    0.0100    0.0100    0.0100    0.0100    0.0100
    0.0100    0.0100    0.0100    0.0100    0.0100    0.0100    0.0100    0.0100
    0.0100    0.0100    0.0100    0.0100    0.0100    0.0100    0.0100    0.0100
    0.0100    0.0100    0.0100    0.0100    0.0100    0.0100    0.0100    0.0100
    0.0100    0.0100    0.0100    0.0100    0.0100    0.0100    0.0100    0.0100
    0.0100    0.0100    0.0100    0.0100    0.0100    0.0100    0.0100    0.0100
    0.0100    0.0100    0.0100    0.0100    0.0100    0.0100    0.0100    0.0100
    0.0100    0.0100    0.0100    0.0100    0.0100    0.0100    0.0100    0.0100
    0.0100    0.0100    0.0100    0.0100    0.0100    0.0100    0.0100    0.0100
    0.0100    0.0100    0.0100    0.0100    0.0100    0.0100    0.0100    0.0100
    0.0100    0.0100    0.0100    0.0100    0.0100    0.0100    0.0100    0.0100
    0.0100    0.0100    0.0100    0.0100    0.0100    0.0100    0.0100    0.0100
    0.0100    0.0100    0.0100    0.0100    0.0100    0.0100    0.0100    0.0100
    0.0100    0.0100    0.0100    0.0100    0.0100    0.0100    0.0100    0.0100
    0.0100    0.0100    0.0100    0.0100    0.0100    0.0100    0.0100    0.0100
    0.0100    0.0100    0.0100    0.0100    0.0100    0.0100    0.0100    0.0100
    0.0100    0.0100    0.0100    0.0100    0.0100    0.0100    0.0100    0.0100
    0.0100    0.0100    0.0100    0.0100    0.0100    0.0100    0.0100    0.0100
    0.0100    0.0100    0.0100    0.0100    0.0100    0.0100    0.0100    0.0100
    0.0100    0.0100    0.0100    0.0100    0.0100    0.0100    0.0100    0.0100
    0.0100    0.0100    0.0100    0.0100    0.0100    0.0100    0.0100    0.0100
    0.0100    0.0100    0.0100    0.0100    0.0100    0.0100    0.0100    0.0100
    0.0100    0.0100    0.0100    0.0100    0.0100    0.0100    0.0100    0.0100
    0.0100    0.0100    0.0100    0.0100    0.0100    0.0100    0.0100    0.0100
    0.0100    0.0100    0.0100    0.0100    0.0100    0.0100    0.0100    0.0100
    0.0100    0.0100    0.0100    0.0100    0.0100    0.0100    0.0100    0.0100
    0.0100    0.0100    0.0100    0.0100    0.0100    0.0100    0.0100    0.0100
    0.0100    0.0100    0.0100    0.0100    0.0100    0.0100    0.0100    0.0100
    0.0100    0.0100    0.0100    0.0100    0.0100    0.0100    0.0100    0.0100
    0.0100    0.0100    0.0100    0.0100    0.0100    0.0100    0.0100    0.0100
    0.0100    0.0100    0.0100    0.0100    0.0100    0.0100    0.0100    0.0100
    0.0100    0.0100    0.0100    0.0100    0.0100    0.0100    0.0100    0.0100
    0.0100    0.0100    0.0100    0.0100    0.0100    0.0100    0.0100    0.0100
    0.0100    0.0100    0.0100    0.0100    0.0100    0.0100    0.0100    0.0100
    0.0100    0.0100    0.0100    0.0100    0.0100    0.0100    0.0100    0.0100
    0.0100    0.0100    0.0100    0.0100    0.0100    0.0100    0.0100    0.0100
    0.0100    0.0100    0.0100    0.0100    0.0100    0.0100    0.0100    0.0100
    0.0100    0.0100    0.0100    0.0100    0.0100    0.0100    0.0100    0.0100
    0.0100    0.0100    0.0100    0.0100    0.0100    0.0100    0.0100    0.0100
    0.0100    0.0100    0.0100    0.0100    0.0100    0.0100    0.0100    0.0100
    0.0100    0.0100    0.0100    0.0100    0.0100    0.0100    0.0100    0.0100
    0.0100    0.0100    0.0100    0.0100    0.0100    0.0100    0.0100    0.0100
    0.0100    0.0100    0.0100    0.0100    0.0100    0.0100    0.0100    0.0100
    0.0100    0.0100    0.0100    0.0100    0.0100    0.0100    0.0100    0.0100
    0.0100    0.0100    0.0100    0.0100    0.0100    0.0100    0.0100    0.0100
    0.0100    0.0100    0.0100    0.0100    0.0100    0.0100    0.0100    0.0100
    0.0100    0.0100    0.0100    0.0100    0.0100    0.0100    0.0100    0.0100
    0.0100    0.0100    0.0100    0.0100    0.0100    0.0100    0.0100    0.0100
    0.0100    0.0100    0.0100    0.0100    0.0100    0.0100    0.0100    0.0100
    0.0100    0.0100    0.0100    0.0100    0.0100    0.0100    0.0100    0.0100
    0.0100    0.0100    0.0100    0.0100    0.0100    0.0100    0.0100    0.0100
    0.0100    0.0100    0.0100    0.0100    0.0100    0.0100    0.0100    0.0100
    0.0100    0.0100    0.0100    0.0100    0.0100    0.0100    0.0100    0.0100
    0.0100    0.0100    0.0100    0.0100    0.0100    0.0100    0.0100    0.0100
    0.0100    0.0100    0.0100    0.0100    0.0100    0.0100    0.0100    0.0100
    0.0100    0.0100    0.0100    0.0100    0.0100    0.0100    0.0100    0.0100
    0.0100    0.0100    0.0100    0.0100    0.0100    0.0100    0.0100    0.0100
    0.0100    0.0100    0.0100    0.0100    0.0100    0.0100    0.0100    0.0100
    0.0100    0.0100    0.0100    0.0100    0.0100    0.0100    0.0100    0.0100
    0.0100    0.0100    0.0100    0.0100    0.0100    0.0100    0.0100    0.0100
    0.0100    0.0100    0.0100    0.0100    0.0100    0.0100    0.0100    0.0100
    0.0100    0.0100    0.0100    0.0100    0.0100    0.0100    0.0100    0.0100
    0.0100    0.0100    0.0100    0.0100    0.0100    0.0100    0.0100    0.0100
    0.0100    0.0100    0.0100    0.0100    0.0100    0.0100    0.0100    0.0100
    0.0100    0.0100    0.0100    0.0100    0.0100    0.0100    0.0100    0.0100
    0.0100    0.0100    0.0100    0.0100    0.0100    0.0100    0.0100    0.0100
    0.0100    0.0100    0.0100    0.0100    0.0100    0.0100    0.0100    0.0100
    0.0100    0.0100    0.0100    0.0100    0.0100    0.0100    0.0100    0.0100
    0.0100    0.0100    0.0100    0.0100    0.0100    0.0100    0.0100    0.0100
    0.0100    0.0100    0.0100    0.0100    0.0100    0.0100    0.0100    0.0100
    0.0100    0.0100    0.0100    0.0100    0.0100    0.0100    0.0100    0.0100
    0.0100    0.0100    0.0100    0.0100    0.0100    0.0100    0.0100    0.0100
    0.0100    0.0100    0.0100    0.0100    0.0100    0.0100    0.0100    0.0100
    0.0100    0.0100    0.0100    0.0100    0.0100    0.0100    0.0100    0.0100
    0.0100    0.0100    0.0100    0.0100    0.0100    0.0100    0.0100    0.0100
    0.0100    0.0100    0.0100    0.0100    0.0100    0.0100    0.0100    0.0100
    0.0100    0.0100    0.0100    0.0100    0.0100    0.0100    0.0100    0.0100
    0.0100    0.0100    0.0100    0.0100    0.0100    0.0100    0.0100    0.0100
    0.0100    0.0100    0.0100    0.0100    0.0100    0.0100    0.0100    0.0100
    0.0100    0.0100    0.0100    0.0100    0.0100    0.0100    0.0100    0.0100
    0.0100    0.0100    0.0100    0.0100    0.0100    0.0100    0.0100    0.0100
    0.0100    0.0100    0.0100    0.0100    0.0100    0.0100    0.0100    0.0100
    0.0100    0.0100    0.0100    0.0100    0.0100    0.0100    0.0100    0.0100
    0.0100    0.0100    0.0100    0.0100    0.0100    0.0100    0.0100    0.0100
    0.0100    0.0100    0.0100    0.0100    0.0100    0.0100    0.0100    0.0100
    0.0100    0.0100    0.0100    0.0100    0.0100    0.0100    0.0100    0.0100
    0.0100    0.0100    0.0100    0.0100    0.0100    0.0100    0.0100    0.0100
    0.0100    0.0100    0.0100    0.0100    0.0100    0.0100    0.0100    0.0100
    0.0100    0.0100    0.0100    0.0100    0.0100    0.0100    0.0100    0.0100
    0.0100    0.0100    0.0100    0.0100    0.0100    0.0100    0.0100    0.0100
    0.0100    0.0100    0.0100    0.0100    0.0100    0.0100    0.0100    0.0100
    0.0100    0.0100    0.0100    0.0100    0.0100    0.0100    0.0100    0.0100
    0.0100    0.0100    0.0100    0.0100    0.0100    0.0100    0.0100    0.0100
    0.0100    0.0100    0.0100    0.0100    0.0100    0.0100    0.0100    0.0100
    0.0100    0.0100    0.0100    0.0100    0.0100    0.0100    0.0100    0.0100
    0.0100    0.0100    0.0100    0.0100    0.0100    0.0100    0.0100    0.0100
    0.0100    0.0100    0.0100    0.0100    0.0100    0.0100    0.0100    0.0100
    0.0100    0.0100    0.0100    0.0100    0.0100    0.0100    0.0100    0.0100
    0.0100    0.0100    0.0100    0.0100    0.0100    0.0100    0.0100    0.0100
    0.0100    0.0100    0.0100    0.0100    0.0100    0.0100    0.0100    0.0100
    0.0100    0.0100    0.0100    0.0100    0.0100    0.0100    0.0100    0.0100
    0.0100    0.0100    0.0100    0.0100    0.0100    0.0100    0.0100    0.0100
    0.0100    0.0100    0.0100    0.0100    0.0100    0.0100    0.0100    0.0100
    0.0100    0.0100    0.0100    0.0100    0.0100    0.0100    0.0100    0.0100
    0.0100    0.0100    0.0100    0.0100    0.0100    0.0100    0.0100    0.0100
    0.0100    0.0100    0.0100    0.0100    0.0100    0.0100    0.0100    0.0100
   </PP_RAB>
 </PP_MESH>
  <PP_LOCAL type="real"  size="1288" columns="4">
   -6.4957767816E+01   -6.4954964515E+01   -6.4946574445E+01   -6.4932585433E+01
   -6.4912989173E+01   -6.4887774109E+01   -6.4856925499E+01   -6.4820425507E+01
   -6.4778253310E+01   -6.4730385227E+01   -6.4676794858E+01   -6.4617453257E+01
   -6.4552329102E+01   -6.4481388900E+01   -6.4404597199E+01   -6.4321916815E+01
   -6.4233309078E+01   -6.4138734087E+01   -6.4038150981E+01   -6.3931518217E+01
   -6.3818793859E+01   -6.3699935879E+01   -6.3574902456E+01   -6.3443652287E+01
   -6.3306144895E+01   -6.3162340947E+01   -6.3012202552E+01   -6.2855693578E+01
   -6.2692779940E+01   -6.2523429897E+01   -6.2347614320E+01   -6.2165306963E+01
   -6.1976484700E+01   -6.1781127761E+01   -6.1579219941E+01   -6.1370748797E+01
   -6.1155705845E+01   -6.0934086750E+01   -6.0705891555E+01   -6.0471124950E+01
   -6.0229796649E+01   -5.9981921925E+01   -5.9727522399E+01   -5.9466627190E+01
   -5.9199274597E+01   -5.8925514501E+01   -5.8645411719E+01   -5.8359050596E+01
   -5.8066541082E+01   -5.7768026548E+01   -5.7463693416E+01   -5.7153782443E+01
   -5.6838601013E+01   -5.6518535130E+01   -5.6194058832E+01   -5.5865737693E+01
   -5.5534222034E+01   -5.5200224960E+01   -5.4864480975E+01   -5.4527683364E+01
   -5.4190403251E+01   -5.3852999887E+01   -5.3515538809E+01   -5.3177739288E+01
   -5.2838971755E+01   -5.2498317654E+01   -5.2154689289E+01   -5.1806990119E+01
   -5.1454283026E+01   -5.1095930801E+01   -5.0731680648E+01   -5.0361679697E+01
   -4.9986418575E+01   -4.9606603160E+01   -4.9223053640E+01   -4.8836591995E+01
   -4.8447932750E+01   -4.8057601423E+01   -4.7665975065E+01   -4.7273988365E+01
   -4.6882262734E+01   -4.6491198753E+01   -4.6101081313E+01   -4.5712094053E+01
   -4.5324346163E+01   -4.4937904859E+01   -4.4552826201E+01   -4.4169178520E+01
   -4.3787055787E+01   -4.3406581433E+01   -4.3027905369E+01   -4.2651197651E+01
   -4.2276641682E+01   -4.1904428677E+01   -4.1534753963E+01   -4.1167814938E+01
   -4.0803810215E+01   -4.0442939497E+01   -4.0085403828E+01   -3.9731406040E+01
   -3.9381151256E+01   -3.9034847341E+01   -3.8692705168E+01   -3.8354938461E+01
   -3.8021762909E+01   -3.7693394104E+01   -3.7370043763E+01   -3.7051913595E+01
   -3.6739186215E+01   -3.6432012647E+01   -3.6130496287E+01   -3.5834673799E+01
   -3.5544494215E+01   -3.5259798476E+01   -3.4980302643E+01   -3.4705588737E+01
   -3.4435107354E+01   -3.4168195537E+01   -3.3904111673E+01   -3.3642086483E+01
   -3.3381385877E+01   -3.3121378233E+01   -3.2861596473E+01   -3.2601784920E+01
   -3.2341922815E+01   -3.2082220416E+01   -3.1823088913E+01   -3.1565090747E+01
   -3.1308880936E+01   -3.1055151708E+01   -3.0804591756E+01   -3.0557868443E+01
   -3.0315639734E+01   -3.0078593448E+01   -2.9847500563E+01   -2.9623300173E+01
   -2.9405925473E+01   -2.9192056162E+01   -2.8981194380E+01   -2.8773292019E+01
   -2.8568292611E+01   -2.8366140709E+01   -2.8166781940E+01   -2.7970163002E+01
   -2.7776231651E+01   -2.7584936693E+01   -2.7396227970E+01   -2.7210056351E+01
   -2.7026373718E+01   -2.6845132952E+01   -2.6666287918E+01   -2.6489793457E+01
   -2.6315605364E+01   -2.6143680383E+01   -2.5973976186E+01   -2.5806451360E+01
   -2.5641065395E+01   -2.5477778668E+01   -2.5316552425E+01   -2.5157348768E+01
   -2.5000130638E+01   -2.4844861798E+01   -2.4691506815E+01   -2.4540031046E+01
   -2.4390400616E+01   -2.4242582209E+01   -2.4096544363E+01   -2.3952253594E+01
   -2.3809680181E+01   -2.3668793419E+01   -2.3529563712E+01   -2.3391962099E+01
   -2.3255960267E+01   -2.3121530536E+01   -2.2988645841E+01   -2.2857279726E+01
   -2.2727406322E+01   -2.2599000342E+01   -2.2472037060E+01   -2.2346492303E+01
   -2.2222342437E+01   -2.2099564351E+01   -2.1978135448E+01   -2.1858033649E+01
   -2.1739237634E+01   -2.1621723603E+01   -2.1505477534E+01   -2.1390472817E+01
   -2.1276690142E+01   -2.1164112837E+01   -2.1052720469E+01   -2.0942494490E+01
   -2.0833416719E+01   -2.0725469307E+01   -2.0618634776E+01   -2.0512896003E+01
   -2.0408236219E+01   -2.0304638993E+01   -2.0202088228E+01   -2.0100568151E+01
   -2.0000063302E+01   -1.9900558533E+01   -1.9802038992E+01   -1.9704490123E+01
   -1.9607897653E+01   -1.9512247587E+01   -1.9417526204E+01   -1.9323720046E+01
   -1.9230815915E+01   -1.9138800863E+01   -1.9047662190E+01   -1.8957387437E+01
   -1.8867964379E+01   -1.8779381019E+01   -1.8691625586E+01   -1.8604686527E+01
   -1.8518552503E+01   -1.8433212383E+01   -1.8348655240E+01   -1.8264870347E+01
   -1.8181847173E+01   -1.8099575375E+01   -1.8018044797E+01   -1.7937245467E+01
   -1.7857167589E+01   -1.7777801542E+01   -1.7699137875E+01   -1.7621167303E+01
   -1.7543880706E+01   -1.7467269121E+01   -1.7391323744E+01   -1.7316035877E+01
   -1.7241397114E+01   -1.7167399108E+01   -1.7094033430E+01   -1.7021292234E+01
   -1.6949167487E+01   -1.6877651399E+01   -1.6806736297E+01   -1.6736414636E+01
   -1.6666679000E+01   -1.6597522091E+01   -1.6528936737E+01   -1.6460915881E+01
   -1.6393452582E+01   -1.6326540013E+01   -1.6260171459E+01   -1.6194340313E+01
   -1.6129040073E+01   -1.6064264344E+01   -1.6000006832E+01   -1.5936261344E+01
   -1.5873021785E+01   -1.5810282156E+01   -1.5748036552E+01   -1.5686279163E+01
   -1.5625004267E+01   -1.5564206233E+01   -1.5503879517E+01   -1.5444018658E+01
   -1.5384618283E+01   -1.5325673099E+01   -1.5267177893E+01   -1.5209127534E+01
   -1.5151516967E+01   -1.5094341211E+01   -1.5037595365E+01   -1.4981274596E+01
   -1.4925374148E+01   -1.4869889331E+01   -1.4814815528E+01   -1.4760148188E+01
   -1.4705882828E+01   -1.4652015030E+01   -1.4598540440E+01   -1.4545454769E+01
   -1.4492753788E+01   -1.4440433330E+01   -1.4388489288E+01   -1.4336917613E+01
   -1.4285714315E+01   -1.4234875460E+01   -1.4184397170E+01   -1.4134275620E+01
   -1.4084507043E+01   -1.4035087719E+01   -1.3986013986E+01   -1.3937282230E+01
   -1.3888888889E+01   -1.3840830450E+01   -1.3793103448E+01   -1.3745704467E+01
   -1.3698630137E+01   -1.3651877133E+01   -1.3605442177E+01   -1.3559322034E+01
   -1.3513513514E+01   -1.3468013468E+01   -1.3422818792E+01   -1.3377926421E+01
   -1.3333333333E+01   -1.3289036545E+01   -1.3245033113E+01   -1.3201320132E+01
   -1.3157894737E+01   -1.3114754098E+01   -1.3071895425E+01   -1.3029315961E+01
   -1.2987012987E+01   -1.2944983819E+01   -1.2903225806E+01   -1.2861736334E+01
   -1.2820512821E+01   -1.2779552716E+01   -1.2738853503E+01   -1.2698412698E+01
   -1.2658227848E+01   -1.2618296530E+01   -1.2578616352E+01   -1.2539184953E+01
   -1.2500000000E+01   -1.2461059190E+01   -1.2422360248E+01   -1.2383900929E+01
   -1.2345679012E+01   -1.2307692308E+01   -1.2269938650E+01   -1.2232415902E+01
   -1.2195121951E+01   -1.2158054711E+01   -1.2121212121E+01   -1.2084592145E+01
   -1.2048192771E+01   -1.2012012012E+01   -1.1976047904E+01   -1.1940298507E+01
   -1.1904761905E+01   -1.1869436202E+01   -1.1834319527E+01   -1.1799410029E+01
   -1.1764705882E+01   -1.1730205279E+01   -1.1695906433E+01   -1.1661807580E+01
   -1.1627906977E+01   -1.1594202899E+01   -1.1560693642E+01   -1.1527377522E+01
   -1.1494252874E+01   -1.1461318052E+01   -1.1428571429E+01   -1.1396011396E+01
   -1.1363636364E+01   -1.1331444759E+01   -1.1299435028E+01   -1.1267605634E+01
   -1.1235955056E+01   -1.1204481793E+01   -1.1173184358E+01   -1.1142061281E+01
   -1.1111111111E+01   -1.1080332410E+01   -1.1049723757E+01   -1.1019283747E+01
   -1.0989010989E+01   -1.0958904110E+01   -1.0928961749E+01   -1.0899182561E+01
   -1.0869565217E+01   -1.0840108401E+01   -1.0810810811E+01   -1.0781671159E+01
   -1.0752688172E+01   -1.0723860590E+01   -1.0695187166E+01   -1.0666666667E+01
   -1.0638297872E+01   -1.0610079576E+01   -1.0582010582E+01   -1.0554089710E+01
   -1.0526315789E+01   -1.0498687664E+01   -1.0471204188E+01   -1.0443864230E+01
   -1.0416666667E+01   -1.0389610390E+01   -1.0362694301E+01   -1.0335917313E+01
   -1.0309278351E+01   -1.0282776350E+01   -1.0256410256E+01   -1.0230179028E+01
   -1.0204081633E+01   -1.0178117048E+01   -1.0152284264E+01   -1.0126582278E+01
   -1.0101010101E+01   -1.0075566751E+01   -1.0050251256E+01   -1.0025062657E+01
   -1.0000000000E+01   -9.9750623441E+00   -9.9502487562E+00   -9.9255583127E+00
   -9.9009900990E+00   -9.8765432099E+00   -9.8522167488E+00   -9.8280098280E+00
   -9.8039215686E+00   -9.7799511002E+00   -9.7560975610E+00   -9.7323600973E+00
   -9.7087378641E+00   -9.6852300242E+00   -9.6618357488E+00   -9.6385542169E+00
   -9.6153846154E+00   -9.5923261391E+00   -9.5693779904E+00   -9.5465393795E+00
   -9.5238095238E+00   -9.5011876485E+00   -9.4786729858E+00   -9.4562647754E+00
   -9.4339622642E+00   -9.4117647059E+00   -9.3896713615E+00   -9.3676814988E+00
   -9.3457943925E+00   -9.3240093240E+00   -9.3023255814E+00   -9.2807424594E+00
   -9.2592592593E+00   -9.2378752887E+00   -9.2165898618E+00   -9.1954022989E+00
   -9.1743119266E+00   -9.1533180778E+00   -9.1324200913E+00   -9.1116173121E+00
   -9.0909090909E+00   -9.0702947846E+00   -9.0497737557E+00   -9.0293453725E+00
   -9.0090090090E+00   -8.9887640449E+00   -8.9686098655E+00   -8.9485458613E+00
   -8.9285714286E+00   -8.9086859688E+00   -8.8888888889E+00   -8.8691796009E+00
   -8.8495575221E+00   -8.8300220751E+00   -8.8105726872E+00   -8.7912087912E+00
   -8.7719298246E+00   -8.7527352298E+00   -8.7336244541E+00   -8.7145969499E+00
   -8.6956521739E+00   -8.6767895879E+00   -8.6580086580E+00   -8.6393088553E+00
   -8.6206896552E+00   -8.6021505376E+00   -8.5836909871E+00   -8.5653104925E+00
   -8.5470085470E+00   -8.5287846482E+00   -8.5106382979E+00   -8.4925690021E+00
   -8.4745762712E+00   -8.4566596195E+00   -8.4388185654E+00   -8.4210526316E+00
   -8.4033613445E+00   -8.3857442348E+00   -8.3682008368E+00   -8.3507306889E+00
   -8.3333333333E+00   -8.3160083160E+00   -8.2987551867E+00   -8.2815734990E+00
   -8.2644628099E+00   -8.2474226804E+00   -8.2304526749E+00   -8.2135523614E+00
   -8.1967213115E+00   -8.1799591002E+00   -8.1632653061E+00   -8.1466395112E+00
   -8.1300813008E+00   -8.1135902637E+00   -8.0971659919E+00   -8.0808080808E+00
   -8.0645161290E+00   -8.0482897384E+00   -8.0321285141E+00   -8.0160320641E+00
   -8.0000000000E+00   -7.9840319361E+00   -7.9681274900E+00   -7.9522862823E+00
   -7.9365079365E+00   -7.9207920792E+00   -7.9051383399E+00   -7.8895463511E+00
   -7.8740157480E+00   -7.8585461690E+00   -7.8431372549E+00   -7.8277886497E+00
   -7.8125000000E+00   -7.7972709552E+00   -7.7821011673E+00   -7.7669902913E+00
   -7.7519379845E+00   -7.7369439072E+00   -7.7220077220E+00   -7.7071290944E+00
   -7.6923076923E+00   -7.6775431862E+00   -7.6628352490E+00   -7.6481835564E+00
   -7.6335877863E+00   -7.6190476190E+00   -7.6045627376E+00   -7.5901328273E+00
   -7.5757575758E+00   -7.5614366730E+00   -7.5471698113E+00   -7.5329566855E+00
   -7.5187969925E+00   -7.5046904315E+00   -7.4906367041E+00   -7.4766355140E+00
   -7.4626865672E+00   -7.4487895717E+00   -7.4349442379E+00   -7.4211502783E+00
   -7.4074074074E+00   -7.3937153420E+00   -7.3800738007E+00   -7.3664825046E+00
   -7.3529411765E+00   -7.3394495413E+00   -7.3260073260E+00   -7.3126142596E+00
   -7.2992700730E+00   -7.2859744991E+00   -7.2727272727E+00   -7.2595281307E+00
   -7.2463768116E+00   -7.2332730561E+00   -7.2202166065E+00   -7.2072072072E+00
   -7.1942446043E+00   -7.1813285458E+00   -7.1684587814E+00   -7.1556350626E+00
   -7.1428571429E+00   -7.1301247772E+00   -7.1174377224E+00   -7.1047957371E+00
   -7.0921985816E+00   -7.0796460177E+00   -7.0671378092E+00   -7.0546737213E+00
   -7.0422535211E+00   -7.0298769772E+00   -7.0175438596E+00   -7.0052539405E+00
   -6.9930069930E+00   -6.9808027923E+00   -6.9686411150E+00   -6.9565217391E+00
   -6.9444444444E+00   -6.9324090121E+00   -6.9204152249E+00   -6.9084628670E+00
   -6.8965517241E+00   -6.8846815835E+00   -6.8728522337E+00   -6.8610634648E+00
   -6.8493150685E+00   -6.8376068376E+00   -6.8259385666E+00   -6.8143100511E+00
   -6.8027210884E+00   -6.7911714771E+00   -6.7796610169E+00   -6.7681895093E+00
   -6.7567567568E+00   -6.7453625632E+00   -6.7340067340E+00   -6.7226890756E+00
   -6.7114093960E+00   -6.7001675042E+00   -6.6889632107E+00   -6.6777963272E+00
   -6.6666666667E+00   -6.6555740433E+00   -6.6445182724E+00   -6.6334991708E+00
   -6.6225165563E+00   -6.6115702479E+00   -6.6006600660E+00   -6.5897858320E+00
   -6.5789473684E+00   -6.5681444992E+00   -6.5573770492E+00   -6.5466448445E+00
   -6.5359477124E+00   -6.5252854812E+00   -6.5146579805E+00   -6.5040650407E+00
   -6.4935064935E+00   -6.4829821718E+00   -6.4724919094E+00   -6.4620355412E+00
   -6.4516129032E+00   -6.4412238325E+00   -6.4308681672E+00   -6.4205457464E+00
   -6.4102564103E+00   -6.4000000000E+00   -6.3897763578E+00   -6.3795853270E+00
   -6.3694267516E+00   -6.3593004769E+00   -6.3492063492E+00   -6.3391442155E+00
   -6.3291139241E+00   -6.3191153239E+00   -6.3091482650E+00   -6.2992125984E+00
   -6.2893081761E+00   -6.2794348509E+00   -6.2695924765E+00   -6.2597809077E+00
   -6.2500000000E+00   -6.2402496100E+00   -6.2305295950E+00   -6.2208398134E+00
   -6.2111801242E+00   -6.2015503876E+00   -6.1919504644E+00   -6.1823802164E+00
   -6.1728395062E+00   -6.1633281972E+00   -6.1538461538E+00   -6.1443932412E+00
   -6.1349693252E+00   -6.1255742726E+00   -6.1162079511E+00   -6.1068702290E+00
   -6.0975609756E+00   -6.0882800609E+00   -6.0790273556E+00   -6.0698027314E+00
   -6.0606060606E+00   -6.0514372163E+00   -6.0422960725E+00   -6.0331825038E+00
   -6.0240963855E+00   -6.0150375940E+00   -6.0060060060E+00   -5.9970014993E+00
   -5.9880239521E+00   -5.9790732436E+00   -5.9701492537E+00   -5.9612518629E+00
   -5.9523809524E+00   -5.9435364042E+00   -5.9347181009E+00   -5.9259259259E+00
   -5.9171597633E+00   -5.9084194978E+00   -5.8997050147E+00   -5.8910162003E+00
   -5.8823529412E+00   -5.8737151248E+00   -5.8651026393E+00   -5.8565153734E+00
   -5.8479532164E+00   -5.8394160584E+00   -5.8309037901E+00   -5.8224163028E+00
   -5.8139534884E+00   -5.8055152395E+00   -5.7971014493E+00   -5.7887120116E+00
   -5.7803468208E+00   -5.7720057720E+00   -5.7636887608E+00   -5.7553956835E+00
   -5.7471264368E+00   -5.7388809182E+00   -5.7306590258E+00   -5.7224606581E+00
   -5.7142857143E+00   -5.7061340942E+00   -5.6980056980E+00   -5.6899004267E+00
   -5.6818181818E+00   -5.6737588652E+00   -5.6657223796E+00   -5.6577086280E+00
   -5.6497175141E+00   -5.6417489422E+00   -5.6338028169E+00   -5.6258790436E+00
   -5.6179775281E+00   -5.6100981767E+00   -5.6022408964E+00   -5.5944055944E+00
   -5.5865921788E+00   -5.5788005579E+00   -5.5710306407E+00   -5.5632823366E+00
   -5.5555555556E+00   -5.5478502080E+00   -5.5401662050E+00   -5.5325034578E+00
   -5.5248618785E+00   -5.5172413793E+00   -5.5096418733E+00   -5.5020632737E+00
   -5.4945054945E+00   -5.4869684499E+00   -5.4794520548E+00   -5.4719562244E+00
   -5.4644808743E+00   -5.4570259209E+00   -5.4495912807E+00   -5.4421768707E+00
   -5.4347826087E+00   -5.4274084125E+00   -5.4200542005E+00   -5.4127198917E+00
   -5.4054054054E+00   -5.3981106613E+00   -5.3908355795E+00   -5.3835800808E+00
   -5.3763440860E+00   -5.3691275168E+00   -5.3619302949E+00   -5.3547523427E+00
   -5.3475935829E+00   -5.3404539386E+00   -5.3333333333E+00   -5.3262316911E+00
   -5.3191489362E+00   -5.3120849934E+00   -5.3050397878E+00   -5.2980132450E+00
   -5.2910052910E+00   -5.2840158520E+00   -5.2770448549E+00   -5.2700922266E+00
   -5.2631578947E+00   -5.2562417871E+00   -5.2493438320E+00   -5.2424639581E+00
   -5.2356020942E+00   -5.2287581699E+00   -5.2219321149E+00   -5.2151238592E+00
   -5.2083333333E+00   -5.2015604681E+00   -5.1948051948E+00   -5.1880674449E+00
   -5.1813471503E+00   -5.1746442432E+00   -5.1679586563E+00   -5.1612903226E+00
   -5.1546391753E+00   -5.1480051480E+00   -5.1413881748E+00   -5.1347881900E+00
   -5.1282051282E+00   -5.1216389245E+00   -5.1150895141E+00   -5.1085568327E+00
   -5.1020408163E+00   -5.0955414013E+00   -5.0890585242E+00   -5.0825921220E+00
   -5.0761421320E+00   -5.0697084918E+00   -5.0632911392E+00   -5.0568900126E+00
   -5.0505050505E+00   -5.0441361917E+00   -5.0377833753E+00   -5.0314465409E+00
   -5.0251256281E+00   -5.0188205772E+00   -5.0125313283E+00   -5.0062578223E+00
   -5.0000000000E+00   -4.9937578027E+00   -4.9875311721E+00   -4.9813200498E+00
   -4.9751243781E+00   -4.9689440994E+00   -4.9627791563E+00   -4.9566294919E+00
   -4.9504950495E+00   -4.9443757726E+00   -4.9382716049E+00   -4.9321824908E+00
   -4.9261083744E+00   -4.9200492005E+00   -4.9140049140E+00   -4.9079754601E+00
   -4.9019607843E+00   -4.8959608323E+00   -4.8899755501E+00   -4.8840048840E+00
   -4.8780487805E+00   -4.8721071864E+00   -4.8661800487E+00   -4.8602673147E+00
   -4.8543689320E+00   -4.8484848485E+00   -4.8426150121E+00   -4.8367593712E+00
   -4.8309178744E+00   -4.8250904704E+00   -4.8192771084E+00   -4.8134777377E+00
   -4.8076923077E+00   -4.8019207683E+00   -4.7961630695E+00   -4.7904191617E+00
   -4.7846889952E+00   -4.7789725209E+00   -4.7732696897E+00   -4.7675804529E+00
   -4.7619047619E+00   -4.7562425684E+00   -4.7505938242E+00   -4.7449584816E+00
   -4.7393364929E+00   -4.7337278107E+00   -4.7281323877E+00   -4.7225501771E+00
   -4.7169811321E+00   -4.7114252061E+00   -4.7058823529E+00   -4.7003525264E+00
   -4.6948356808E+00   -4.6893317702E+00   -4.6838407494E+00   -4.6783625731E+00
   -4.6728971963E+00   -4.6674445741E+00   -4.6620046620E+00   -4.6565774156E+00
   -4.6511627907E+00   -4.6457607433E+00   -4.6403712297E+00   -4.6349942063E+00
   -4.6296296296E+00   -4.6242774566E+00   -4.6189376443E+00   -4.6136101499E+00
   -4.6082949309E+00   -4.6029919448E+00   -4.5977011494E+00   -4.5924225029E+00
   -4.5871559633E+00   -4.5819014891E+00   -4.5766590389E+00   -4.5714285714E+00
   -4.5662100457E+00   -4.5610034208E+00   -4.5558086560E+00   -4.5506257110E+00
   -4.5454545455E+00   -4.5402951192E+00   -4.5351473923E+00   -4.5300113250E+00
   -4.5248868778E+00   -4.5197740113E+00   -4.5146726862E+00   -4.5095828636E+00
   -4.5045045045E+00   -4.4994375703E+00   -4.4943820225E+00   -4.4893378227E+00
   -4.4843049327E+00   -4.4792833147E+00   -4.4742729306E+00   -4.4692737430E+00
   -4.4642857143E+00   -4.4593088071E+00   -4.4543429844E+00   -4.4493882091E+00
   -4.4444444444E+00   -4.4395116537E+00   -4.4345898004E+00   -4.4296788483E+00
   -4.4247787611E+00   -4.4198895028E+00   -4.4150110375E+00   -4.4101433297E+00
   -4.4052863436E+00   -4.4004400440E+00   -4.3956043956E+00   -4.3907793633E+00
   -4.3859649123E+00   -4.3811610077E+00   -4.3763676149E+00   -4.3715846995E+00
   -4.3668122271E+00   -4.3620501636E+00   -4.3572984749E+00   -4.3525571273E+00
   -4.3478260870E+00   -4.3431053203E+00   -4.3383947939E+00   -4.3336944745E+00
   -4.3290043290E+00   -4.3243243243E+00   -4.3196544276E+00   -4.3149946063E+00
   -4.3103448276E+00   -4.3057050592E+00   -4.3010752688E+00   -4.2964554243E+00
   -4.2918454936E+00   -4.2872454448E+00   -4.2826552463E+00   -4.2780748663E+00
   -4.2735042735E+00   -4.2689434365E+00   -4.2643923241E+00   -4.2598509052E+00
   -4.2553191489E+00   -4.2507970244E+00   -4.2462845011E+00   -4.2417815483E+00
   -4.2372881356E+00   -4.2328042328E+00   -4.2283298097E+00   -4.2238648363E+00
   -4.2194092827E+00   -4.2149631191E+00   -4.2105263158E+00   -4.2060988433E+00
   -4.2016806723E+00   -4.1972717733E+00   -4.1928721174E+00   -4.1884816754E+00
   -4.1841004184E+00   -4.1797283177E+00   -4.1753653445E+00   -4.1710114703E+00
   -4.1666666667E+00   -4.1623309053E+00   -4.1580041580E+00   -4.1536863967E+00
   -4.1493775934E+00   -4.1450777202E+00   -4.1407867495E+00   -4.1365046536E+00
   -4.1322314050E+00   -4.1279669763E+00   -4.1237113402E+00   -4.1194644696E+00
   -4.1152263374E+00   -4.1109969168E+00   -4.1067761807E+00   -4.1025641026E+00
   -4.0983606557E+00   -4.0941658137E+00   -4.0899795501E+00   -4.0858018386E+00
   -4.0816326531E+00   -4.0774719674E+00   -4.0733197556E+00   -4.0691759919E+00
   -4.0650406504E+00   -4.0609137056E+00   -4.0567951318E+00   -4.0526849037E+00
   -4.0485829960E+00   -4.0444893832E+00   -4.0404040404E+00   -4.0363269425E+00
   -4.0322580645E+00   -4.0281973817E+00   -4.0241448692E+00   -4.0201005025E+00
   -4.0160642570E+00   -4.0120361083E+00   -4.0080160321E+00   -4.0040040040E+00
   -4.0000000000E+00   -3.9960039960E+00   -3.9920159681E+00   -3.9880358923E+00
   -3.9840637450E+00   -3.9800995025E+00   -3.9761431412E+00   -3.9721946375E+00
   -3.9682539683E+00   -3.9643211100E+00   -3.9603960396E+00   -3.9564787339E+00
   -3.9525691700E+00   -3.9486673248E+00   -3.9447731755E+00   -3.9408866995E+00
   -3.9370078740E+00   -3.9331366765E+00   -3.9292730845E+00   -3.9254170756E+00
   -3.9215686275E+00   -3.9177277179E+00   -3.9138943249E+00   -3.9100684262E+00
   -3.9062500000E+00   -3.9024390244E+00   -3.8986354776E+00   -3.8948393379E+00
   -3.8910505837E+00   -3.8872691934E+00   -3.8834951456E+00   -3.8797284190E+00
   -3.8759689922E+00   -3.8722168441E+00   -3.8684719536E+00   -3.8647342995E+00
   -3.8610038610E+00   -3.8572806172E+00   -3.8535645472E+00   -3.8498556304E+00
   -3.8461538462E+00   -3.8424591739E+00   -3.8387715931E+00   -3.8350910834E+00
   -3.8314176245E+00   -3.8277511962E+00   -3.8240917782E+00   -3.8204393505E+00
   -3.8167938931E+00   -3.8131553861E+00   -3.8095238095E+00   -3.8058991437E+00
   -3.8022813688E+00   -3.7986704653E+00   -3.7950664137E+00   -3.7914691943E+00
   -3.7878787879E+00   -3.7842951750E+00   -3.7807183365E+00   -3.7771482531E+00
   -3.7735849057E+00   -3.7700282752E+00   -3.7664783427E+00   -3.7629350894E+00
   -3.7593984962E+00   -3.7558685446E+00   -3.7523452158E+00   -3.7488284911E+00
   -3.7453183521E+00   -3.7418147802E+00   -3.7383177570E+00   -3.7348272642E+00
   -3.7313432836E+00   -3.7278657968E+00   -3.7243947858E+00   -3.7209302326E+00
   -3.7174721190E+00   -3.7140204271E+00   -3.7105751391E+00   -3.7071362373E+00
   -3.7037037037E+00   -3.7002775208E+00   -3.6968576710E+00   -3.6934441367E+00
   -3.6900369004E+00   -3.6866359447E+00   -3.6832412523E+00   -3.6798528059E+00
   -3.6764705882E+00   -3.6730945822E+00   -3.6697247706E+00   -3.6663611366E+00
   -3.6630036630E+00   -3.6596523330E+00   -3.6563071298E+00   -3.6529680365E+00
   -3.6496350365E+00   -3.6463081130E+00   -3.6429872495E+00   -3.6396724295E+00
   -3.6363636364E+00   -3.6330608538E+00   -3.6297640653E+00   -3.6264732548E+00
   -3.6231884058E+00   -3.6199095023E+00   -3.6166365280E+00   -3.6133694670E+00
   -3.6101083032E+00   -3.6068530207E+00   -3.6036036036E+00   -3.6003600360E+00
   -3.5971223022E+00   -3.5938903863E+00   -3.5906642729E+00   -3.5874439462E+00
   -3.5842293907E+00   -3.5810205909E+00   -3.5778175313E+00   -3.5746201966E+00
   -3.5714285714E+00   -3.5682426405E+00   -3.5650623886E+00   -3.5618878005E+00
   -3.5587188612E+00   -3.5555555556E+00   -3.5523978686E+00   -3.5492457853E+00
   -3.5460992908E+00   -3.5429583702E+00   -3.5398230088E+00   -3.5366931919E+00
   -3.5335689046E+00   -3.5304501324E+00   -3.5273368607E+00   -3.5242290749E+00
   -3.5211267606E+00   -3.5180299033E+00   -3.5149384886E+00   -3.5118525022E+00
   -3.5087719298E+00   -3.5056967572E+00   -3.5026269702E+00   -3.4995625547E+00
   -3.4965034965E+00   -3.4934497817E+00   -3.4904013962E+00   -3.4873583261E+00
   -3.4843205575E+00   -3.4812880766E+00   -3.4782608696E+00   -3.4752389227E+00
   -3.4722222222E+00   -3.4692107546E+00   -3.4662045061E+00   -3.4632034632E+00
   -3.4602076125E+00   -3.4572169404E+00   -3.4542314335E+00   -3.4512510785E+00
   -3.4482758621E+00   -3.4453057709E+00   -3.4423407917E+00   -3.4393809114E+00
   -3.4364261168E+00   -3.4334763948E+00   -3.4305317324E+00   -3.4275921165E+00
   -3.4246575342E+00   -3.4217279726E+00   -3.4188034188E+00   -3.4158838599E+00
   -3.4129692833E+00   -3.4100596760E+00   -3.4071550256E+00   -3.4042553191E+00
   -3.4013605442E+00   -3.3984706882E+00   -3.3955857385E+00   -3.3927056828E+00
   -3.3898305085E+00   -3.3869602032E+00   -3.3840947547E+00   -3.3812341505E+00
   -3.3783783784E+00   -3.3755274262E+00   -3.3726812816E+00   -3.3698399326E+00
   -3.3670033670E+00   -3.3641715728E+00   -3.3613445378E+00   -3.3585222502E+00
   -3.3557046980E+00   -3.3528918692E+00   -3.3500837521E+00   -3.3472803347E+00
   -3.3444816054E+00   -3.3416875522E+00   -3.3388981636E+00   -3.3361134279E+00
   -3.3333333333E+00   -3.3305578684E+00   -3.3277870216E+00   -3.3250207814E+00
   -3.3222591362E+00   -3.3195020747E+00   -3.3167495854E+00   -3.3140016570E+00
   -3.3112582781E+00   -3.3085194376E+00   -3.3057851240E+00   -3.3030553262E+00
   -3.3003300330E+00   -3.2976092333E+00   -3.2948929160E+00   -3.2921810700E+00
   -3.2894736842E+00   -3.2867707477E+00   -3.2840722496E+00   -3.2813781788E+00
   -3.2786885246E+00   -3.2760032760E+00   -3.2733224223E+00   -3.2706459526E+00
   -3.2679738562E+00   -3.2653061224E+00   -3.2626427406E+00   -3.2599837001E+00
   -3.2573289902E+00   -3.2546786005E+00   -3.2520325203E+00   -3.2493907392E+00
   -3.2467532468E+00   -3.2441200324E+00   -3.2414910859E+00   -3.2388663968E+00
   -3.2362459547E+00   -3.2336297494E+00   -3.2310177706E+00   -3.2284100081E+00
   -3.2258064516E+00   -3.2232070911E+00   -3.2206119163E+00   -3.2180209171E+00
   -3.2154340836E+00   -3.2128514056E+00   -3.2102728732E+00   -3.2076984763E+00
   -3.2051282051E+00   -3.2025620496E+00   -3.2000000000E+00   -3.1974420464E+00
   -3.1948881789E+00   -3.1923383879E+00   -3.1897926635E+00   -3.1872509960E+00
   -3.1847133758E+00   -3.1821797932E+00   -3.1796502385E+00   -3.1771247021E+00
   -3.1746031746E+00   -3.1720856463E+00   -3.1695721078E+00   -3.1670625495E+00
   -3.1645569620E+00   -3.1620553360E+00   -3.1595576619E+00   -3.1570639305E+00
   -3.1545741325E+00   -3.1520882585E+00   -3.1496062992E+00   -3.1471282455E+00
   -3.1446540881E+00   -3.1421838178E+00   -3.1397174254E+00   -3.1372549020E+00
   -3.1347962382E+00   -3.1323414252E+00   -3.1298904538E+00   -3.1274433151E+00
   -3.1250000000E+00   -3.1225604996E+00   -3.1201248050E+00   -3.1176929072E+00
   -3.1152647975E+00   -3.1128404669E+00   -3.1104199067E+00   -3.1080031080E+00
  </PP_LOCAL>
 <PP_NONLOCAL>
   <PP_BETA.1
       type="real"
       size="1288"
       columns="4"
       index="1"
       angular_momentum="0"
       cutoff_radius_index=" 192"
       cutoff_radius="    1.9100000000E+00" >
   -1.8739280905E-08    9.6943493196E-02    1.9342015182E-01    2.8896918765E-01
    3.8314174298E-01    4.7550645565E-01    5.6565455770E-01    6.5320437536E-01
    7.3780511653E-01    8.1913985430E-01    8.9692764032E-01    9.7092470866E-01
    1.0409247597E+00    1.1067583413E+00    1.1682913745E+00    1.2254228939E+00
    1.2780821012E+00    1.3262248493E+00    1.3698296897E+00    1.4088936333E+00
    1.4434277783E+00    1.4734529647E+00    1.4989956113E+00    1.5200838849E+00
    1.5367443377E+00    1.5489991340E+00    1.5568639663E+00    1.5603467355E+00
    1.5594470448E+00    1.5541565293E+00    1.5444600118E+00    1.5303374490E+00
    1.5117666030E+00    1.4887263478E+00    1.4612004965E+00    1.4291820173E+00
    1.3926774898E+00    1.3517116432E+00    1.3063318135E+00    1.2566121559E+00
    1.2026574559E+00    1.1446063916E+00    1.0826341163E+00    1.0169540506E+00
    9.4781879451E-01    8.7552009605E-01    8.0038783876E-01    7.2278803400E-01
    6.4311982681E-01    5.6181154166E-01    4.7931580624E-01    3.9610379736E-01
    3.1265865362E-01    2.2946809820E-01    1.4701631965E-01    6.5775178841E-02
   -1.3805137092E-02   -9.1305794734E-02   -1.6634895440E-01   -2.3860679251E-01
   -3.0780911048E-01   -3.7374857007E-01   -4.3628258041E-01   -4.9533108916E-01
   -5.5087003967E-01   -6.0292098680E-01   -6.5153813898E-01   -6.9679466495E-01
   -7.3877025322E-01   -7.7754156426E-01   -8.1317648309E-01   -8.4573221673E-01
   -8.7525850136E-01   -9.0180993965E-01   -9.2544372969E-01   -9.4621809895E-01
   -9.6419272773E-01   -9.7942829754E-01   -9.9199866792E-01   -1.0020583171E+00
   -1.0096661383E+00   -1.0148406539E+00   -1.0175789208E+00   -1.0178559630E+00
   -1.0156254588E+00   -1.0108219299E+00   -1.0033645007E+00   -9.9316209822E-01
   -9.8011978953E-01   -9.6414585864E-01   -9.4515920577E-01   -9.2309669320E-01
   -8.9792012670E-01   -8.6962262344E-01   -8.3823416225E-01   -8.0382614064E-01
   -7.6651478364E-01   -7.2646327212E-01   -6.8388248729E-01   -6.3903030821E-01
   -5.9220944785E-01   -5.4376387180E-01   -4.9407390861E-01   -4.4355023008E-01
   -3.9262694979E-01   -3.4175415130E-01   -2.9139020594E-01   -2.4199426073E-01
   -1.9401925705E-01   -1.4790576607E-01   -1.0407678939E-01   -6.2933472011E-02
   -2.4851428274E-02    9.8228761366E-03    4.0776451469E-02    6.7735669509E-02
    9.0474439011E-02    1.0882503098E-01    1.2269128894E-01    1.3206316031E-01
    1.3703067503E-01    1.3779490089E-01    1.3467324611E-01    1.2809691247E-01
    1.1859932694E-01    1.0679582228E-01    9.3356368677E-02    7.8974390668E-02
    6.4335313900E-02    5.0088320039E-02    3.6823914003E-02    2.5058461136E-02
    1.5223022494E-02    7.6554793878E-03    2.5989281641E-03    2.0547119026E-04
    3.2278970308E-06   -1.3021093587E-10    0.0000000000E+00    0.0000000000E+00
    0.0000000000E+00    0.0000000000E+00    0.0000000000E+00    0.0000000000E+00
    0.0000000000E+00    0.0000000000E+00    0.0000000000E+00    0.0000000000E+00
    0.0000000000E+00    0.0000000000E+00    0.0000000000E+00    0.0000000000E+00
    0.0000000000E+00    0.0000000000E+00    0.0000000000E+00    0.0000000000E+00
    0.0000000000E+00    0.0000000000E+00    0.0000000000E+00    0.0000000000E+00
    0.0000000000E+00    0.0000000000E+00    0.0000000000E+00    0.0000000000E+00
    0.0000000000E+00    0.0000000000E+00    0.0000000000E+00    0.0000000000E+00
    0.0000000000E+00    0.0000000000E+00    0.0000000000E+00    0.0000000000E+00
    0.0000000000E+00    0.0000000000E+00    0.0000000000E+00    0.0000000000E+00
    0.0000000000E+00    0.0000000000E+00    0.0000000000E+00    0.0000000000E+00
    0.0000000000E+00    0.0000000000E+00    0.0000000000E+00    0.0000000000E+00
    0.0000000000E+00    0.0000000000E+00    0.0000000000E+00    0.0000000000E+00
    0.0000000000E+00    0.0000000000E+00    0.0000000000E+00    0.0000000000E+00
 0. 0. 0. 0.
 0. 0. 0. 0.
 0. 0. 0. 0.
 0. 0. 0. 0.
 0. 0. 0. 0.
 0. 0. 0. 0.
 0. 0. 0. 0.
 0. 0. 0. 0.
 0. 0. 0. 0.
 0. 0. 0. 0.
 0. 0. 0. 0.
 0. 0. 0. 0.
 0. 0. 0. 0.
 0. 0. 0. 0.
 0. 0. 0. 0.
 0. 0. 0. 0.
 0. 0. 0. 0.
 0. 0. 0. 0.
 0. 0. 0. 0.
 0. 0. 0. 0.
 0. 0. 0. 0.
 0. 0. 0. 0.
 0. 0. 0. 0.
 0. 0. 0. 0.
 0. 0. 0. 0.
 0. 0. 0. 0.
 0. 0. 0. 0.
 0. 0. 0. 0.
 0. 0. 0. 0.
 0. 0. 0. 0.
 0. 0. 0. 0.
 0. 0. 0. 0.
 0. 0. 0. 0.
 0. 0. 0. 0.
 0. 0. 0. 0.
 0. 0. 0. 0.
 0. 0. 0. 0.
 0. 0. 0. 0.
 0. 0. 0. 0.
 0. 0. 0. 0.
 0. 0. 0. 0.
 0. 0. 0. 0.
 0. 0. 0. 0.
 0. 0. 0. 0.
 0. 0. 0. 0.
 0. 0. 0. 0.
 0. 0. 0. 0.
 0. 0. 0. 0.
 0. 0. 0. 0.
 0. 0. 0. 0.
 0. 0. 0. 0.
 0. 0. 0. 0.
 0. 0. 0. 0.
 0. 0. 0. 0.
 0. 0. 0. 0.
 0. 0. 0. 0.
 0. 0. 0. 0.
 0. 0. 0. 0.
 0. 0. 0. 0.
 0. 0. 0. 0.
 0. 0. 0. 0.
 0. 0. 0. 0.
 0. 0. 0. 0.
 0. 0. 0. 0.
 0. 0. 0. 0.
 0. 0. 0. 0.
 0. 0. 0. 0.
 0. 0. 0. 0.
 0. 0. 0. 0.
 0. 0. 0. 0.
 0. 0. 0. 0.
 0. 0. 0. 0.
 0. 0. 0. 0.
 0. 0. 0. 0.
 0. 0. 0. 0.
 0. 0. 0. 0.
 0. 0. 0. 0.
 0. 0. 0. 0.
 0. 0. 0. 0.
 0. 0. 0. 0.
 0. 0. 0. 0.
 0. 0. 0. 0.
 0. 0. 0. 0.
 0. 0. 0. 0.
 0. 0. 0. 0.
 0. 0. 0. 0.
 0. 0. 0. 0.
 0. 0. 0. 0.
 0. 0. 0. 0.
 0. 0. 0. 0.
 0. 0. 0. 0.
 0. 0. 0. 0.
 0. 0. 0. 0.
 0. 0. 0. 0.
 0. 0. 0. 0.
 0. 0. 0. 0.
 0. 0. 0. 0.
 0. 0. 0. 0.
 0. 0. 0. 0.
 0. 0. 0. 0.
 0. 0. 0. 0.
 0. 0. 0. 0.
 0. 0. 0. 0.
 0. 0. 0. 0.
 0. 0. 0. 0.
 0. 0. 0. 0.
 0. 0. 0. 0.
 0. 0. 0. 0.
 0. 0. 0. 0.
 0. 0. 0. 0.
 0. 0. 0. 0.
 0. 0. 0. 0.
 0. 0. 0. 0.
 0. 0. 0. 0.
 0. 0. 0. 0.
 0. 0. 0. 0.
 0. 0. 0. 0.
 0. 0. 0. 0.
 0. 0. 0. 0.
 0. 0. 0. 0.
 0. 0. 0. 0.
 0. 0. 0. 0.
 0. 0. 0. 0.
 0. 0. 0. 0.
 0. 0. 0. 0.
 0. 0. 0. 0.
 0. 0. 0. 0.
 0. 0. 0. 0.
 0. 0. 0. 0.
 0. 0. 0. 0.
 0. 0. 0. 0.
 0. 0. 0. 0.
 0. 0. 0. 0.
 0. 0. 0. 0.
 0. 0. 0. 0.
 0. 0. 0. 0.
 0. 0. 0. 0.
 0. 0. 0. 0.
 0. 0. 0. 0.
 0. 0. 0. 0.
 0. 0. 0. 0.
 0. 0. 0. 0.
 0. 0. 0. 0.
 0. 0. 0. 0.
 0. 0. 0. 0.
 0. 0. 0. 0.
 0. 0. 0. 0.
 0. 0. 0. 0.
 0. 0. 0. 0.
 0. 0. 0. 0.
 0. 0. 0. 0.
 0. 0. 0. 0.
 0. 0. 0. 0.
 0. 0. 0. 0.
 0. 0. 0. 0.
 0. 0. 0. 0.
 0. 0. 0. 0.
 0. 0. 0. 0.
 0. 0. 0. 0.
 0. 0. 0. 0.
 0. 0. 0. 0.
 0. 0. 0. 0.
 0. 0. 0. 0.
 0. 0. 0. 0.
 0. 0. 0. 0.
 0. 0. 0. 0.
 0. 0. 0. 0.
 0. 0. 0. 0.
 0. 0. 0. 0.
 0. 0. 0. 0.
 0. 0. 0. 0.
 0. 0. 0. 0.
 0. 0. 0. 0.
 0. 0. 0. 0.
 0. 0. 0. 0.
 0. 0. 0. 0.
 0. 0. 0. 0.
 0. 0. 0. 0.
 0. 0. 0. 0.
 0. 0. 0. 0.
 0. 0. 0. 0.
 0. 0. 0. 0.
 0. 0. 0. 0.
 0. 0. 0. 0.
 0. 0. 0. 0.
 0. 0. 0. 0.
 0. 0. 0. 0.
 0. 0. 0. 0.
 0. 0. 0. 0.
 0. 0. 0. 0.
 0. 0. 0. 0.
 0. 0. 0. 0.
 0. 0. 0. 0.
 0. 0. 0. 0.
 0. 0. 0. 0.
 0. 0. 0. 0.
 0. 0. 0. 0.
 0. 0. 0. 0.
 0. 0. 0. 0.
 0. 0. 0. 0.
 0. 0. 0. 0.
 0. 0. 0. 0.
 0. 0. 0. 0.
 0. 0. 0. 0.
 0. 0. 0. 0.
 0. 0. 0. 0.
 0. 0. 0. 0.
 0. 0. 0. 0.
 0. 0. 0. 0.
 0. 0. 0. 0.
 0. 0. 0. 0.
 0. 0. 0. 0.
 0. 0. 0. 0.
 0. 0. 0. 0.
 0. 0. 0. 0.
 0. 0. 0. 0.
 0. 0. 0. 0.
 0. 0. 0. 0.
 0. 0. 0. 0.
 0. 0. 0. 0.
 0. 0. 0. 0.
 0. 0. 0. 0.
 0. 0. 0. 0.
 0. 0. 0. 0.
 0. 0. 0. 0.
 0. 0. 0. 0.
 0. 0. 0. 0.
 0. 0. 0. 0.
 0. 0. 0. 0.
 0. 0. 0. 0.
 0. 0. 0. 0.
 0. 0. 0. 0.
 0. 0. 0. 0.
 0. 0. 0. 0.
 0. 0. 0. 0.
 0. 0. 0. 0.
 0. 0. 0. 0.
 0. 0. 0. 0.
 0. 0. 0. 0.
 0. 0. 0. 0.
 0. 0. 0. 0.
 0. 0. 0. 0.
 0. 0. 0. 0.
 0. 0. 0. 0.
 0. 0. 0. 0.
 0. 0. 0. 0.
 0. 0. 0. 0.
 0. 0. 0. 0.
 0. 0. 0. 0.
 0. 0. 0. 0.
 0. 0. 0. 0.
 0. 0. 0. 0.
 0. 0. 0. 0.
 0. 0. 0. 0.
 0. 0. 0. 0.
 0. 0. 0. 0.
 0. 0. 0. 0.
 0. 0. 0. 0.
 0. 0. 0. 0.
 0. 0. 0. 0.
 0. 0. 0. 0.
 0. 0. 0. 0.
 0. 0. 0. 0.
 0. 0. 0. 0.
 0. 0. 0. 0.
 0. 0. 0. 0.
 0. 0. 0. 0.
 0. 0. 0. 0.
 0. 0. 0. 0.
 0. 0. 0. 0.
 0. 0. 0. 0.
 0. 0. 0. 0.
 0. 0. 0. 0.
 0. 0. 0. 0.
   </PP_BETA.1>
   <PP_BETA.2
       type="real"
       size="1288"
       columns="4"
       index="2"
       angular_momentum="0"
       cutoff_radius_index=" 192"
       cutoff_radius="    1.9100000000E+00" >
   -7.7956861244E-09    2.4828019395E-02    4.9627806516E-02    7.4372764964E-02
    9.9039507440E-02    1.2360930579E-01    1.4806936147E-01    1.7241384625E-01
    1.9664467048E-01    2.2077194588E-01    2.4481411993E-01    2.6879777028E-01
    2.9275705934E-01    3.1673286095E-01    3.4077158231E-01    3.6492371544E-01
    3.8924216178E-01    4.1378038206E-01    4.3859043022E-01    4.6372093479E-01
    4.8921509409E-01    5.1510875183E-01    5.4142861842E-01    5.6819069913E-01
    5.9539898465E-01    6.2304445156E-01    6.5110441124E-01    6.7954223432E-01
    7.0830746681E-01    7.3733634072E-01    7.6655266999E-01    7.9586910936E-01
    8.2518874224E-01    8.5440695215E-01    8.8341352266E-01    9.1209490232E-01
    9.4033656503E-01    9.6802539167E-01    9.9505199715E-01    1.0213129272E+00
    1.0467126523E+00    1.0711652910E+00    1.0945960032E+00    1.1169420029E+00
    1.1381531536E+00    1.1581921224E+00    1.1770340872E+00    1.1946660102E+00
    1.2110855114E+00    1.2262994019E+00    1.2403219616E+00    1.2531730742E+00
    1.2648763583E+00    1.2754574563E+00    1.2849426516E+00    1.2933579766E+00
    1.3007289298E+00    1.3070808367E+00    1.3124397564E+00    1.3168336606E+00
    1.3202934333E+00    1.3228530985E+00    1.3245486690E+00    1.3254151747E+00
    1.3254818071E+00    1.3247656420E+00    1.3232649386E+00    1.3209533623E+00
    1.3177764993E+00    1.3136516658E+00    1.3084713958E+00    1.3021102944E+00
    1.2944359366E+00    1.2853266508E+00    1.2746772798E+00    1.2624049323E+00
    1.2484555012E+00    1.2328085102E+00    1.2154906410E+00    1.1966308194E+00
    1.1763245302E+00    1.1546770995E+00    1.1318168499E+00    1.1078915444E+00
    1.0830643417E+00    1.0575095564E+00    1.0314084371E+00    1.0049450601E+00
    9.7830234095E-01    9.5165812514E-01    9.2518132358E-01    8.9902810366E-01
    8.7333819808E-01    8.4823143439E-01    8.2380460682E-01    8.0012880843E-01
    7.7724732537E-01    7.5517417143E-01    7.3389331795E-01    7.1335865362E-01
    6.9349469321E-01    6.7419804415E-01    6.5533963750E-01    6.3676773410E-01
    6.1831172922E-01    5.9978679566E-01    5.8099942311E-01    5.6175392063E-01
    5.4185993910E-01    5.2114102538E-01    4.9944412543E-01    4.7664979684E-01
    4.5268267173E-01    4.2752144288E-01    4.0120736787E-01    3.7385006565E-01
    3.4562930309E-01    3.1679162561E-01    2.8764114049E-01    2.5852451669E-01
    2.2981123201E-01    2.0187109371E-01    1.7505182663E-01    1.4965980831E-01
    1.2594666293E-01    1.0410340217E-01    8.4262312149E-02    6.6505187941E-02
    5.0875219315E-02    3.7389168852E-02    2.6046604834E-02    1.6833695818E-02
    9.7186710208E-03    4.6397672213E-03    1.4911004612E-03    1.0282135484E-04
    1.6472521974E-06    2.6683982756E-10    0.0000000000E+00    0.0000000000E+00
    0.0000000000E+00    0.0000000000E+00    0.0000000000E+00    0.0000000000E+00
    0.0000000000E+00    0.0000000000E+00    0.0000000000E+00    0.0000000000E+00
    0.0000000000E+00    0.0000000000E+00    0.0000000000E+00    0.0000000000E+00
    0.0000000000E+00    0.0000000000E+00    0.0000000000E+00    0.0000000000E+00
    0.0000000000E+00    0.0000000000E+00    0.0000000000E+00    0.0000000000E+00
    0.0000000000E+00    0.0000000000E+00    0.0000000000E+00    0.0000000000E+00
    0.0000000000E+00    0.0000000000E+00    0.0000000000E+00    0.0000000000E+00
    0.0000000000E+00    0.0000000000E+00    0.0000000000E+00    0.0000000000E+00
    0.0000000000E+00    0.0000000000E+00    0.0000000000E+00    0.0000000000E+00
    0.0000000000E+00    0.0000000000E+00    0.0000000000E+00    0.0000000000E+00
    0.0000000000E+00    0.0000000000E+00    0.0000000000E+00    0.0000000000E+00
    0.0000000000E+00    0.0000000000E+00    0.0000000000E+00    0.0000000000E+00
    0.0000000000E+00    0.0000000000E+00    0.0000000000E+00    0.0000000000E+00
 0. 0. 0. 0.
 0. 0. 0. 0.
 0. 0. 0. 0.
 0. 0. 0. 0.
 0. 0. 0. 0.
 0. 0. 0. 0.
 0. 0. 0. 0.
 0. 0. 0. 0.
 0. 0. 0. 0.
 0. 0. 0. 0.
 0. 0. 0. 0.
 0. 0. 0. 0.
 0. 0. 0. 0.
 0. 0. 0. 0.
 0. 0. 0. 0.
 0. 0. 0. 0.
 0. 0. 0. 0.
 0. 0. 0. 0.
 0. 0. 0. 0.
 0. 0. 0. 0.
 0. 0. 0. 0.
 0. 0. 0. 0.
 0. 0. 0. 0.
 0. 0. 0. 0.
 0. 0. 0. 0.
 0. 0. 0. 0.
 0. 0. 0. 0.
 0. 0. 0. 0.
 0. 0. 0. 0.
 0. 0. 0. 0.
 0. 0. 0. 0.
 0. 0. 0. 0.
 0. 0. 0. 0.
 0. 0. 0. 0.
 0. 0. 0. 0.
 0. 0. 0. 0.
 0. 0. 0. 0.
 0. 0. 0. 0.
 0. 0. 0. 0.
 0. 0. 0. 0.
 0. 0. 0. 0.
 0. 0. 0. 0.
 0. 0. 0. 0.
 0. 0. 0. 0.
 0. 0. 0. 0.
 0. 0. 0. 0.
 0. 0. 0. 0.
 0. 0. 0. 0.
 0. 0. 0. 0.
 0. 0. 0. 0.
 0. 0. 0. 0.
 0. 0. 0. 0.
 0. 0. 0. 0.
 0. 0. 0. 0.
 0. 0. 0. 0.
 0. 0. 0. 0.
 0. 0. 0. 0.
 0. 0. 0. 0.
 0. 0. 0. 0.
 0. 0. 0. 0.
 0. 0. 0. 0.
 0. 0. 0. 0.
 0. 0. 0. 0.
 0. 0. 0. 0.
 0. 0. 0. 0.
 0. 0. 0. 0.
 0. 0. 0. 0.
 0. 0. 0. 0.
 0. 0. 0. 0.
 0. 0. 0. 0.
 0. 0. 0. 0.
 0. 0. 0. 0.
 0. 0. 0. 0.
 0. 0. 0. 0.
 0. 0. 0. 0.
 0. 0. 0. 0.
 0. 0. 0. 0.
 0. 0. 0. 0.
 0. 0. 0. 0.
 0. 0. 0. 0.
 0. 0. 0. 0.
 0. 0. 0. 0.
 0. 0. 0. 0.
 0. 0. 0. 0.
 0. 0. 0. 0.
 0. 0. 0. 0.
 0. 0. 0. 0.
 0. 0. 0. 0.
 0. 0. 0. 0.
 0. 0. 0. 0.
 0. 0. 0. 0.
 0. 0. 0. 0.
 0. 0. 0. 0.
 0. 0. 0. 0.
 0. 0. 0. 0.
 0. 0. 0. 0.
 0. 0. 0. 0.
 0. 0. 0. 0.
 0. 0. 0. 0.
 0. 0. 0. 0.
 0. 0. 0. 0.
 0. 0. 0. 0.
 0. 0. 0. 0.
 0. 0. 0. 0.
 0. 0. 0. 0.
 0. 0. 0. 0.
 0. 0. 0. 0.
 0. 0. 0. 0.
 0. 0. 0. 0.
 0. 0. 0. 0.
 0. 0. 0. 0.
 0. 0. 0. 0.
 0. 0. 0. 0.
 0. 0. 0. 0.
 0. 0. 0. 0.
 0. 0. 0. 0.
 0. 0. 0. 0.
 0. 0. 0. 0.
 0. 0. 0. 0.
 0. 0. 0. 0.
 0. 0. 0. 0.
 0. 0. 0. 0.
 0. 0. 0. 0.
 0. 0. 0. 0.
 0. 0. 0. 0.
 0. 0. 0. 0.
 0. 0. 0. 0.
 0. 0. 0. 0.
 0. 0. 0. 0.
 0. 0. 0. 0.
 0. 0. 0. 0.
 0. 0. 0. 0.
 0. 0. 0. 0.
 0. 0. 0. 0.
 0. 0. 0. 0.
 0. 0. 0. 0.
 0. 0. 0. 0.
 0. 0. 0. 0.
 0. 0. 0. 0.
 0. 0. 0. 0.
 0. 0. 0. 0.
 0. 0. 0. 0.
 0. 0. 0. 0.
 0. 0. 0. 0.
 0. 0. 0. 0.
 0. 0. 0. 0.
 0. 0. 0. 0.
 0. 0. 0. 0.
 0. 0. 0. 0.
 0. 0. 0. 0.
 0. 0. 0. 0.
 0. 0. 0. 0.
 0. 0. 0. 0.
 0. 0. 0. 0.
 0. 0. 0. 0.
 0. 0. 0. 0.
 0. 0. 0. 0.
 0. 0. 0. 0.
 0. 0. 0. 0.
 0. 0. 0. 0.
 0. 0. 0. 0.
 0. 0. 0. 0.
 0. 0. 0. 0.
 0. 0. 0. 0.
 0. 0. 0. 0.
 0. 0. 0. 0.
 0. 0. 0. 0.
 0. 0. 0. 0.
 0. 0. 0. 0.
 0. 0. 0. 0.
 0. 0. 0. 0.
 0. 0. 0. 0.
 0. 0. 0. 0.
 0. 0. 0. 0.
 0. 0. 0. 0.
 0. 0. 0. 0.
 0. 0. 0. 0.
 0. 0. 0. 0.
 0. 0. 0. 0.
 0. 0. 0. 0.
 0. 0. 0. 0.
 0. 0. 0. 0.
 0. 0. 0. 0.
 0. 0. 0. 0.
 0. 0. 0. 0.
 0. 0. 0. 0.
 0. 0. 0. 0.
 0. 0. 0. 0.
 0. 0. 0. 0.
 0. 0. 0. 0.
 0. 0. 0. 0.
 0. 0. 0. 0.
 0. 0. 0. 0.
 0. 0. 0. 0.
 0. 0. 0. 0.
 0. 0. 0. 0.
 0. 0. 0. 0.
 0. 0. 0. 0.
 0. 0. 0. 0.
 0. 0. 0. 0.
 0. 0. 0. 0.
 0. 0. 0. 0.
 0. 0. 0. 0.
 0. 0. 0. 0.
 0. 0. 0. 0.
 0. 0. 0. 0.
 0. 0. 0. 0.
 0. 0. 0. 0.
 0. 0. 0. 0.
 0. 0. 0. 0.
 0. 0. 0. 0.
 0. 0. 0. 0.
 0. 0. 0. 0.
 0. 0. 0. 0.
 0. 0. 0. 0.
 0. 0. 0. 0.
 0. 0. 0. 0.
 0. 0. 0. 0.
 0. 0. 0. 0.
 0. 0. 0. 0.
 0. 0. 0. 0.
 0. 0. 0. 0.
 0. 0. 0. 0.
 0. 0. 0. 0.
 0. 0. 0. 0.
 0. 0. 0. 0.
 0. 0. 0. 0.
 0. 0. 0. 0.
 0. 0. 0. 0.
 0. 0. 0. 0.
 0. 0. 0. 0.
 0. 0. 0. 0.
 0. 0. 0. 0.
 0. 0. 0. 0.
 0. 0. 0. 0.
 0. 0. 0. 0.
 0. 0. 0. 0.
 0. 0. 0. 0.
 0. 0. 0. 0.
 0. 0. 0. 0.
 0. 0. 0. 0.
 0. 0. 0. 0.
 0. 0. 0. 0.
 0. 0. 0. 0.
 0. 0. 0. 0.
 0. 0. 0. 0.
 0. 0. 0. 0.
 0. 0. 0. 0.
 0. 0. 0. 0.
 0. 0. 0. 0.
 0. 0. 0. 0.
 0. 0. 0. 0.
 0. 0. 0. 0.
 0. 0. 0. 0.
 0. 0. 0. 0.
 0. 0. 0. 0.
 0. 0. 0. 0.
 0. 0. 0. 0.
 0. 0. 0. 0.
 0. 0. 0. 0.
 0. 0. 0. 0.
 0. 0. 0. 0.
 0. 0. 0. 0.
 0. 0. 0. 0.
 0. 0. 0. 0.
 0. 0. 0. 0.
 0. 0. 0. 0.
 0. 0. 0. 0.
 0. 0. 0. 0.
 0. 0. 0. 0.
 0. 0. 0. 0.
 0. 0. 0. 0.
 0. 0. 0. 0.
 0. 0. 0. 0.
   </PP_BETA.2>
   <PP_BETA.3
       type="real"
       size="1288"
       columns="4"
       index="3"
       angular_momentum="1"
       cutoff_radius_index=" 192"
       cutoff_radius="    1.9100000000E+00" >
    7.9693969479E-10    1.1529368746E-03    4.6082225700E-03    1.0355304943E-02
    1.8376672059E-02    2.8647962899E-02    4.1138118908E-02    5.5809573041E-02
    7.2618472189E-02    9.1514928159E-02    1.1244329185E-01    1.3534244482E-01
    1.6014610231E-01    1.8678312147E-01    2.1517780887E-01    2.4525022161E-01
    2.7691645642E-01    3.1008892233E-01    3.4467659249E-01    3.8058523227E-01
    4.1771760109E-01    4.5597362680E-01    4.9525055248E-01    5.3544305641E-01
    5.7644334724E-01    6.1814123737E-01    6.6042419841E-01    7.0317740374E-01
    7.4628376349E-01    7.8962395842E-01    8.3307647908E-01    8.7651767714E-01
    9.1982183588E-01    9.6286126624E-01    1.0055064349E+00    1.0476261298E+00
    1.0890876679E+00    1.1297571484E+00    1.1694997542E+00    1.2081801021E+00
    1.2456626404E+00    1.2818120924E+00    1.3164939400E+00    1.3495749437E+00
    1.3809236889E+00    1.4104111542E+00    1.4379112908E+00    1.4633016097E+00
    1.4864637720E+00    1.5072841872E+00    1.5256546306E+00    1.5414729050E+00
    1.5546435863E+00    1.5650789083E+00    1.5726998594E+00    1.5774375666E+00
    1.5792350346E+00    1.5780492694E+00    1.5738537411E+00    1.5666410270E+00
    1.5564253326E+00    1.5432444451E+00    1.5271605902E+00    1.5082596827E+00
    1.4866486527E+00    1.4624508672E+00    1.4358000967E+00    1.4068338686E+00
    1.3756872560E+00    1.3424881059E+00    1.3073544054E+00    1.2703940411E+00
    1.2317077230E+00    1.1913972678E+00    1.1495674015E+00    1.1063278605E+00
    1.0617963908E+00    1.0161010682E+00    9.6938893139E-01    9.2186456105E-01
    8.7369753180E-01    8.2504954163E-01    7.7608333484E-01    7.2696074380E-01
    6.7784075386E-01    6.2887780376E-01    5.8022046320E-01    5.3201053026E-01
    4.8438250245E-01    4.3746332184E-01    3.9137228355E-01    3.4622101850E-01
    3.0211349669E-01    2.5914602919E-01    2.1740726672E-01    1.7697819926E-01
    1.3793215942E-01    1.0033482774E-01    6.4244235121E-02    2.9710757609E-02
   -3.2228957381E-03   -3.4521691963E-02   -6.4158255629E-02   -9.2112779326E-02
   -1.1837279851E-01   -1.4293274433E-01   -1.6579317097E-01   -1.8695954811E-01
   -2.0644052243E-01   -2.2424559418E-01   -2.4038223331E-01   -2.5485257756E-01
   -2.6765000744E-01   -2.7875606187E-01   -2.8813831168E-01   -2.9574989816E-01
   -3.0153141697E-01   -3.0541563861E-01   -3.0733518531E-01   -3.0723275852E-01
   -3.0507291618E-01   -3.0085387143E-01   -2.9461748219E-01   -2.8645565854E-01
   -2.7651188485E-01   -2.6497737761E-01   -2.5208240205E-01   -2.3808420530E-01
   -2.2325364965E-01   -2.0786278686E-01   -1.9217528062E-01   -1.7644083949E-01
   -1.6089332548E-01   -1.4575198349E-01   -1.3122575823E-01   -1.1752144534E-01
   -1.0470313947E-01   -9.2454053226E-02   -8.0803373351E-02   -6.9822275876E-02
   -5.9568446226E-02   -5.0086884298E-02   -4.1409842081E-02   -3.3556945544E-02
   -2.6535502265E-02   -2.0340986147E-02   -1.4957687594E-02   -1.0359515236E-02
   -6.5109331381E-03   -3.3680158136E-03   -8.7960185859E-04    1.0114738907E-03
    2.3670906814E-03    3.2525159952E-03    3.7350651271E-03    3.8827676616E-03
    3.7630620240E-03    3.4415385887E-03    2.9807510838E-03    2.4391148287E-03
    1.8699090474E-03    1.3203988555E-03    8.3109075077E-04    4.3513326829E-04
    1.5787366731E-04    1.6640234041E-05    6.1667707317E-08   -2.6880911403E-12
    0.0000000000E+00    0.0000000000E+00    0.0000000000E+00    0.0000000000E+00
    0.0000000000E+00    0.0000000000E+00    0.0000000000E+00    0.0000000000E+00
    0.0000000000E+00    0.0000000000E+00    0.0000000000E+00    0.0000000000E+00
    0.0000000000E+00    0.0000000000E+00    0.0000000000E+00    0.0000000000E+00
    0.0000000000E+00    0.0000000000E+00    0.0000000000E+00    0.0000000000E+00
    0.0000000000E+00    0.0000000000E+00    0.0000000000E+00    0.0000000000E+00
 0. 0. 0. 0.
 0. 0. 0. 0.
 0. 0. 0. 0.
 0. 0. 0. 0.
 0. 0. 0. 0.
 0. 0. 0. 0.
 0. 0. 0. 0.
 0. 0. 0. 0.
 0. 0. 0. 0.
 0. 0. 0. 0.
 0. 0. 0. 0.
 0. 0. 0. 0.
 0. 0. 0. 0.
 0. 0. 0. 0.
 0. 0. 0. 0.
 0. 0. 0. 0.
 0. 0. 0. 0.
 0. 0. 0. 0.
 0. 0. 0. 0.
 0. 0. 0. 0.
 0. 0. 0. 0.
 0. 0. 0. 0.
 0. 0. 0. 0.
 0. 0. 0. 0.
 0. 0. 0. 0.
 0. 0. 0. 0.
 0. 0. 0. 0.
 0. 0. 0. 0.
 0. 0. 0. 0.
 0. 0. 0. 0.
 0. 0. 0. 0.
 0. 0. 0. 0.
 0. 0. 0. 0.
 0. 0. 0. 0.
 0. 0. 0. 0.
 0. 0. 0. 0.
 0. 0. 0. 0.
 0. 0. 0. 0.
 0. 0. 0. 0.
 0. 0. 0. 0.
 0. 0. 0. 0.
 0. 0. 0. 0.
 0. 0. 0. 0.
 0. 0. 0. 0.
 0. 0. 0. 0.
 0. 0. 0. 0.
 0. 0. 0. 0.
 0. 0. 0. 0.
 0. 0. 0. 0.
 0. 0. 0. 0.
 0. 0. 0. 0.
 0. 0. 0. 0.
 0. 0. 0. 0.
 0. 0. 0. 0.
 0. 0. 0. 0.
 0. 0. 0. 0.
 0. 0. 0. 0.
 0. 0. 0. 0.
 0. 0. 0. 0.
 0. 0. 0. 0.
 0. 0. 0. 0.
 0. 0. 0. 0.
 0. 0. 0. 0.
 0. 0. 0. 0.
 0. 0. 0. 0.
 0. 0. 0. 0.
 0. 0. 0. 0.
 0. 0. 0. 0.
 0. 0. 0. 0.
 0. 0. 0. 0.
 0. 0. 0. 0.
 0. 0. 0. 0.
 0. 0. 0. 0.
 0. 0. 0. 0.
 0. 0. 0. 0.
 0. 0. 0. 0.
 0. 0. 0. 0.
 0. 0. 0. 0.
 0. 0. 0. 0.
 0. 0. 0. 0.
 0. 0. 0. 0.
 0. 0. 0. 0.
 0. 0. 0. 0.
 0. 0. 0. 0.
 0. 0. 0. 0.
 0. 0. 0. 0.
 0. 0. 0. 0.
 0. 0. 0. 0.
 0. 0. 0. 0.
 0. 0. 0. 0.
 0. 0. 0. 0.
 0. 0. 0. 0.
 0. 0. 0. 0.
 0. 0. 0. 0.
 0. 0. 0. 0.
 0. 0. 0. 0.
 0. 0. 0. 0.
 0. 0. 0. 0.
 0. 0. 0. 0.
 0. 0. 0. 0.
 0. 0. 0. 0.
 0. 0. 0. 0.
 0. 0. 0. 0.
 0. 0. 0. 0.
 0. 0. 0. 0.
 0. 0. 0. 0.
 0. 0. 0. 0.
 0. 0. 0. 0.
 0. 0. 0. 0.
 0. 0. 0. 0.
 0. 0. 0. 0.
 0. 0. 0. 0.
 0. 0. 0. 0.
 0. 0. 0. 0.
 0. 0. 0. 0.
 0. 0. 0. 0.
 0. 0. 0. 0.
 0. 0. 0. 0.
 0. 0. 0. 0.
 0. 0. 0. 0.
 0. 0. 0. 0.
 0. 0. 0. 0.
 0. 0. 0. 0.
 0. 0. 0. 0.
 0. 0. 0. 0.
 0. 0. 0. 0.
 0. 0. 0. 0.
 0. 0. 0. 0.
 0. 0. 0. 0.
 0. 0. 0. 0.
 0. 0. 0. 0.
 0. 0. 0. 0.
 0. 0. 0. 0.
 0. 0. 0. 0.
 0. 0. 0. 0.
 0. 0. 0. 0.
 0. 0. 0. 0.
 0. 0. 0. 0.
 0. 0. 0. 0.
 0. 0. 0. 0.
 0. 0. 0. 0.
 0. 0. 0. 0.
 0. 0. 0. 0.
 0. 0. 0. 0.
 0. 0. 0. 0.
 0. 0. 0. 0.
 0. 0. 0. 0.
 0. 0. 0. 0.
 0. 0. 0. 0.
 0. 0. 0. 0.
 0. 0. 0. 0.
 0. 0. 0. 0.
 0. 0. 0. 0.
 0. 0. 0. 0.
 0. 0. 0. 0.
 0. 0. 0. 0.
 0. 0. 0. 0.
 0. 0. 0. 0.
 0. 0. 0. 0.
 0. 0. 0. 0.
 0. 0. 0. 0.
 0. 0. 0. 0.
 0. 0. 0. 0.
 0. 0. 0. 0.
 0. 0. 0. 0.
 0. 0. 0. 0.
 0. 0. 0. 0.
 0. 0. 0. 0.
 0. 0. 0. 0.
 0. 0. 0. 0.
 0. 0. 0. 0.
 0. 0. 0. 0.
 0. 0. 0. 0.
 0. 0. 0. 0.
 0. 0. 0. 0.
 0. 0. 0. 0.
 0. 0. 0. 0.
 0. 0. 0. 0.
 0. 0. 0. 0.
 0. 0. 0. 0.
 0. 0. 0. 0.
 0. 0. 0. 0.
 0. 0. 0. 0.
 0. 0. 0. 0.
 0. 0. 0. 0.
 0. 0. 0. 0.
 0. 0. 0. 0.
 0. 0. 0. 0.
 0. 0. 0. 0.
 0. 0. 0. 0.
 0. 0. 0. 0.
 0. 0. 0. 0.
 0. 0. 0. 0.
 0. 0. 0. 0.
 0. 0. 0. 0.
 0. 0. 0. 0.
 0. 0. 0. 0.
 0. 0. 0. 0.
 0. 0. 0. 0.
 0. 0. 0. 0.
 0. 0. 0. 0.
 0. 0. 0. 0.
 0. 0. 0. 0.
 0. 0. 0. 0.
 0. 0. 0. 0.
 0. 0. 0. 0.
 0. 0. 0. 0.
 0. 0. 0. 0.
 0. 0. 0. 0.
 0. 0. 0. 0.
 0. 0. 0. 0.
 0. 0. 0. 0.
 0. 0. 0. 0.
 0. 0. 0. 0.
 0. 0. 0. 0.
 0. 0. 0. 0.
 0. 0. 0. 0.
 0. 0. 0. 0.
 0. 0. 0. 0.
 0. 0. 0. 0.
 0. 0. 0. 0.
 0. 0. 0. 0.
 0. 0. 0. 0.
 0. 0. 0. 0.
 0. 0. 0. 0.
 0. 0. 0. 0.
 0. 0. 0. 0.
 0. 0. 0. 0.
 0. 0. 0. 0.
 0. 0. 0. 0.
 0. 0. 0. 0.
 0. 0. 0. 0.
 0. 0. 0. 0.
 0. 0. 0. 0.
 0. 0. 0. 0.
 0. 0. 0. 0.
 0. 0. 0. 0.
 0. 0. 0. 0.
 0. 0. 0. 0.
 0. 0. 0. 0.
 0. 0. 0. 0.
 0. 0. 0. 0.
 0. 0. 0. 0.
 0. 0. 0. 0.
 0. 0. 0. 0.
 0. 0. 0. 0.
 0. 0. 0. 0.
 0. 0. 0. 0.
 0. 0. 0. 0.
 0. 0. 0. 0.
 0. 0. 0. 0.
 0. 0. 0. 0.
 0. 0. 0. 0.
 0. 0. 0. 0.
 0. 0. 0. 0.
 0. 0. 0. 0.
 0. 0. 0. 0.
 0. 0. 0. 0.
 0. 0. 0. 0.
 0. 0. 0. 0.
 0. 0. 0. 0.
 0. 0. 0. 0.
 0. 0. 0. 0.
 0. 0. 0. 0.
 0. 0. 0. 0.
 0. 0. 0. 0.
 0. 0. 0. 0.
 0. 0. 0. 0.
 0. 0. 0. 0.
 0. 0. 0. 0.
 0. 0. 0. 0.
 0. 0. 0. 0.
 0. 0. 0. 0.
 0. 0. 0. 0.
   </PP_BETA.3>
   <PP_BETA.4
       type="real"
       size="1288"
       columns="4"
       index="4"
       angular_momentum="1"
       cutoff_radius_index=" 192"
       cutoff_radius="    1.9100000000E+00" >
   -4.5516046973E-09   -9.0075760495E-04   -3.5956102850E-03   -8.0624132074E-03
   -1.4264640717E-02   -2.2151950067E-02   -3.1660951172E-02   -4.2716163497E-02
   -5.5231136673E-02   -6.9109707452E-02   -8.4247362379E-02   -1.0053267311E-01
   -1.1784876972E-01   -1.3607481653E-01   -1.5508745544E-01   -1.7476218267E-01
   -1.9497462679E-01   -2.1560169927E-01   -2.3652259170E-01   -2.5761959884E-01
   -2.7877875123E-01   -2.9989024649E-01   -3.2084867430E-01   -3.4155303568E-01
   -3.6190656334E-01   -3.8181635535E-01   -4.0119284013E-01   -4.1994909543E-01
   -4.3800004897E-01   -4.5526159139E-01   -4.7164963598E-01   -4.8707916086E-01
   -5.0146327094E-01   -5.1471231662E-01   -5.2673310532E-01   -5.3742823963E-01
   -5.4669561297E-01   -5.5442808921E-01   -5.6051338782E-01   -5.6483419038E-01
   -5.6726847779E-01   -5.6769010076E-01   -5.6596957962E-01   -5.6197512272E-01
   -5.5557384739E-01   -5.4663318332E-01   -5.3502243628E-01   -5.2061449197E-01
   -5.0328764545E-01   -4.8292755315E-01   -4.5942932161E-01   -4.3269977066E-01
   -4.0265993567E-01   -3.6924790000E-01   -3.3242206530E-01   -2.9216496016E-01
   -2.4848763899E-01   -2.0143461326E-01   -1.5108907334E-01   -9.7577908490E-02
   -4.1075751431E-02    1.8192954943E-02    7.9954935188E-02    1.4389295317E-01
    2.0965487413E-01    2.7686638336E-01    3.4514592484E-01    4.1411974273E-01
    4.8343471576E-01    5.5276707838E-01    6.2182600095E-01    6.9035205974E-01
    7.5810938743E-01    8.2486734430E-01    8.9039839850E-01    9.5447557609E-01
    1.0168682938E+00    1.0773399632E+00    1.1356325607E+00    1.1913917494E+00
    1.2443632281E+00    1.2943316285E+00    1.3411014079E+00    1.3845003319E+00
    1.4243823799E+00    1.4606296993E+00    1.4931534072E+00    1.5218932508E+00
    1.5468163091E+00    1.5679150040E+00    1.5852046930E+00    1.5987210588E+00
    1.6085174340E+00    1.6146621391E+00    1.6172358757E+00    1.6163292065E+00
    1.6120401596E+00    1.6044720006E+00    1.5937312201E+00    1.5799257783E+00
    1.5631636358E+00    1.5435515791E+00    1.5211943191E+00    1.4961938089E+00
    1.4686486902E+00    1.4386537456E+00    1.4062992078E+00    1.3716697777E+00
    1.3348432273E+00    1.2958885365E+00    1.2548636333E+00    1.2118129779E+00
    1.1667654386E+00    1.1197331185E+00    1.0707119607E+00    1.0196850081E+00
    9.6662906897E-01    9.1152517562E-01    8.5437263193E-01    7.9520567929E-01
    7.3411102291E-01    6.7124384647E-01    6.0683971615E-01    5.4122008620E-01
    4.7478999009E-01    4.0802779415E-01    3.4146831799E-01    2.7568183363E-01
    2.1125212869E-01    1.4875678949E-01    8.8752156107E-02    3.1764020523E-02
   -2.1720440652E-02   -7.1260006329E-02   -1.1645890562E-01   -1.5696132783E-01
   -1.9263712711E-01   -2.2386116172E-01   -2.5057329970E-01   -2.7269537930E-01
   -2.9020476315E-01   -3.0313386097E-01   -3.1157008961E-01   -3.1565491760E-01
   -3.1558200123E-01   -3.1159444544E-01   -3.0398123999E-01   -2.9307293526E-01
   -2.7923663497E-01   -2.6287039356E-01   -2.4439711498E-01   -2.2425805591E-01
   -2.0290604193E-01   -1.8079850790E-01   -1.5839047540E-01   -1.3612757992E-01
   -1.1443925903E-01   -9.3732209127E-02   -7.4384214476E-02   -5.6738445924E-02
   -4.1098319596E-02   -2.7722997326E-02   -1.6823601073E-02   -8.5602021620E-03
   -3.0396602766E-03   -3.1553121182E-04   -1.1666276494E-06    1.4020999287E-11
    0.0000000000E+00    0.0000000000E+00    0.0000000000E+00    0.0000000000E+00
    0.0000000000E+00    0.0000000000E+00    0.0000000000E+00    0.0000000000E+00
    0.0000000000E+00    0.0000000000E+00    0.0000000000E+00    0.0000000000E+00
    0.0000000000E+00    0.0000000000E+00    0.0000000000E+00    0.0000000000E+00
    0.0000000000E+00    0.0000000000E+00    0.0000000000E+00    0.0000000000E+00
    0.0000000000E+00    0.0000000000E+00    0.0000000000E+00    0.0000000000E+00
 0. 0. 0. 0.
 0. 0. 0. 0.
 0. 0. 0. 0.
 0. 0. 0. 0.
 0. 0. 0. 0.
 0. 0. 0. 0.
 0. 0. 0. 0.
 0. 0. 0. 0.
 0. 0. 0. 0.
 0. 0. 0. 0.
 0. 0. 0. 0.
 0. 0. 0. 0.
 0. 0. 0. 0.
 0. 0. 0. 0.
 0. 0. 0. 0.
 0. 0. 0. 0.
 0. 0. 0. 0.
 0. 0. 0. 0.
 0. 0. 0. 0.
 0. 0. 0. 0.
 0. 0. 0. 0.
 0. 0. 0. 0.
 0. 0. 0. 0.
 0. 0. 0. 0.
 0. 0. 0. 0.
 0. 0. 0. 0.
 0. 0. 0. 0.
 0. 0. 0. 0.
 0. 0. 0. 0.
 0. 0. 0. 0.
 0. 0. 0. 0.
 0. 0. 0. 0.
 0. 0. 0. 0.
 0. 0. 0. 0.
 0. 0. 0. 0.
 0. 0. 0. 0.
 0. 0. 0. 0.
 0. 0. 0. 0.
 0. 0. 0. 0.
 0. 0. 0. 0.
 0. 0. 0. 0.
 0. 0. 0. 0.
 0. 0. 0. 0.
 0. 0. 0. 0.
 0. 0. 0. 0.
 0. 0. 0. 0.
 0. 0. 0. 0.
 0. 0. 0. 0.
 0. 0. 0. 0.
 0. 0. 0. 0.
 0. 0. 0. 0.
 0. 0. 0. 0.
 0. 0. 0. 0.
 0. 0. 0. 0.
 0. 0. 0. 0.
 0. 0. 0. 0.
 0. 0. 0. 0.
 0. 0. 0. 0.
 0. 0. 0. 0.
 0. 0. 0. 0.
 0. 0. 0. 0.
 0. 0. 0. 0.
 0. 0. 0. 0.
 0. 0. 0. 0.
 0. 0. 0. 0.
 0. 0. 0. 0.
 0. 0. 0. 0.
 0. 0. 0. 0.
 0. 0. 0. 0.
 0. 0. 0. 0.
 0. 0. 0. 0.
 0. 0. 0. 0.
 0. 0. 0. 0.
 0. 0. 0. 0.
 0. 0. 0. 0.
 0. 0. 0. 0.
 0. 0. 0. 0.
 0. 0. 0. 0.
 0. 0. 0. 0.
 0. 0. 0. 0.
 0. 0. 0. 0.
 0. 0. 0. 0.
 0. 0. 0. 0.
 0. 0. 0. 0.
 0. 0. 0. 0.
 0. 0. 0. 0.
 0. 0. 0. 0.
 0. 0. 0. 0.
 0. 0. 0. 0.
 0. 0. 0. 0.
 0. 0. 0. 0.
 0. 0. 0. 0.
 0. 0. 0. 0.
 0. 0. 0. 0.
 0. 0. 0. 0.
 0. 0. 0. 0.
 0. 0. 0. 0.
 0. 0. 0. 0.
 0. 0. 0. 0.
 0. 0. 0. 0.
 0. 0. 0. 0.
 0. 0. 0. 0.
 0. 0. 0. 0.
 0. 0. 0. 0.
 0. 0. 0. 0.
 0. 0. 0. 0.
 0. 0. 0. 0.
 0. 0. 0. 0.
 0. 0. 0. 0.
 0. 0. 0. 0.
 0. 0. 0. 0.
 0. 0. 0. 0.
 0. 0. 0. 0.
 0. 0. 0. 0.
 0. 0. 0. 0.
 0. 0. 0. 0.
 0. 0. 0. 0.
 0. 0. 0. 0.
 0. 0. 0. 0.
 0. 0. 0. 0.
 0. 0. 0. 0.
 0. 0. 0. 0.
 0. 0. 0. 0.
 0. 0. 0. 0.
 0. 0. 0. 0.
 0. 0. 0. 0.
 0. 0. 0. 0.
 0. 0. 0. 0.
 0. 0. 0. 0.
 0. 0. 0. 0.
 0. 0. 0. 0.
 0. 0. 0. 0.
 0. 0. 0. 0.
 0. 0. 0. 0.
 0. 0. 0. 0.
 0. 0. 0. 0.
 0. 0. 0. 0.
 0. 0. 0. 0.
 0. 0. 0. 0.
 0. 0. 0. 0.
 0. 0. 0. 0.
 0. 0. 0. 0.
 0. 0. 0. 0.
 0. 0. 0. 0.
 0. 0. 0. 0.
 0. 0. 0. 0.
 0. 0. 0. 0.
 0. 0. 0. 0.
 0. 0. 0. 0.
 0. 0. 0. 0.
 0. 0. 0. 0.
 0. 0. 0. 0.
 0. 0. 0. 0.
 0. 0. 0. 0.
 0. 0. 0. 0.
 0. 0. 0. 0.
 0. 0. 0. 0.
 0. 0. 0. 0.
 0. 0. 0. 0.
 0. 0. 0. 0.
 0. 0. 0. 0.
 0. 0. 0. 0.
 0. 0. 0. 0.
 0. 0. 0. 0.
 0. 0. 0. 0.
 0. 0. 0. 0.
 0. 0. 0. 0.
 0. 0. 0. 0.
 0. 0. 0. 0.
 0. 0. 0. 0.
 0. 0. 0. 0.
 0. 0. 0. 0.
 0. 0. 0. 0.
 0. 0. 0. 0.
 0. 0. 0. 0.
 0. 0. 0. 0.
 0. 0. 0. 0.
 0. 0. 0. 0.
 0. 0. 0. 0.
 0. 0. 0. 0.
 0. 0. 0. 0.
 0. 0. 0. 0.
 0. 0. 0. 0.
 0. 0. 0. 0.
 0. 0. 0. 0.
 0. 0. 0. 0.
 0. 0. 0. 0.
 0. 0. 0. 0.
 0. 0. 0. 0.
 0. 0. 0. 0.
 0. 0. 0. 0.
 0. 0. 0. 0.
 0. 0. 0. 0.
 0. 0. 0. 0.
 0. 0. 0. 0.
 0. 0. 0. 0.
 0. 0. 0. 0.
 0. 0. 0. 0.
 0. 0. 0. 0.
 0. 0. 0. 0.
 0. 0. 0. 0.
 0. 0. 0. 0.
 0. 0. 0. 0.
 0. 0. 0. 0.
 0. 0. 0. 0.
 0. 0. 0. 0.
 0. 0. 0. 0.
 0. 0. 0. 0.
 0. 0. 0. 0.
 0. 0. 0. 0.
 0. 0. 0. 0.
 0. 0. 0. 0.
 0. 0. 0. 0.
 0. 0. 0. 0.
 0. 0. 0. 0.
 0. 0. 0. 0.
 0. 0. 0. 0.
 0. 0. 0. 0.
 0. 0. 0. 0.
 0. 0. 0. 0.
 0. 0. 0. 0.
 0. 0. 0. 0.
 0. 0. 0. 0.
 0. 0. 0. 0.
 0. 0. 0. 0.
 0. 0. 0. 0.
 0. 0. 0. 0.
 0. 0. 0. 0.
 0. 0. 0. 0.
 0. 0. 0. 0.
 0. 0. 0. 0.
 0. 0. 0. 0.
 0. 0. 0. 0.
 0. 0. 0. 0.
 0. 0. 0. 0.
 0. 0. 0. 0.
 0. 0. 0. 0.
 0. 0. 0. 0.
 0. 0. 0. 0.
 0. 0. 0. 0.
 0. 0. 0. 0.
 0. 0. 0. 0.
 0. 0. 0. 0.
 0. 0. 0. 0.
 0. 0. 0. 0.
 0. 0. 0. 0.
 0. 0. 0. 0.
 0. 0. 0. 0.
 0. 0. 0. 0.
 0. 0. 0. 0.
 0. 0. 0. 0.
 0. 0. 0. 0.
 0. 0. 0. 0.
 0. 0. 0. 0.
 0. 0. 0. 0.
 0. 0. 0. 0.
 0. 0. 0. 0.
 0. 0. 0. 0.
 0. 0. 0. 0.
 0. 0. 0. 0.
 0. 0. 0. 0.
 0. 0. 0. 0.
 0. 0. 0. 0.
 0. 0. 0. 0.
 0. 0. 0. 0.
 0. 0. 0. 0.
 0. 0. 0. 0.
 0. 0. 0. 0.
 0. 0. 0. 0.
 0. 0. 0. 0.
 0. 0. 0. 0.
 0. 0. 0. 0.
 0. 0. 0. 0.
 0. 0. 0. 0.
   </PP_BETA.4>
   <PP_BETA.5
       type="real"
       size="1288"
       columns="4"
       index="5"
       angular_momentum="2"
       cutoff_radius_index=" 192"
       cutoff_radius="    1.9100000000E+00" >
    5.1029402405E-10    1.9443453906E-05    1.5540641808E-04    5.2370383353E-04
    1.2387484568E-03    2.4128670172E-03    4.1556366991E-03    6.5732481057E-03
    9.7679003541E-03    1.3837233333E-02    1.8873801451E-02    2.4964592414E-02
    3.2190593750E-02    4.0626408895E-02    5.0339923795E-02    6.1392024058E-02
    7.3836361849E-02    8.7719170885E-02    1.0307912714E-01    1.1994725220E-01
    1.3834685557E-01    1.5829351194E-01    1.7979506882E-01    2.0285167992E-01
    2.2745585962E-01    2.5359255373E-01    2.8123922204E-01    3.1036592866E-01
    3.4093543626E-01    3.7290330111E-01    4.0621796646E-01    4.4082085243E-01
    4.7664644144E-01    5.1362235895E-01    5.5166945023E-01    5.9070185447E-01
    6.3062707852E-01    6.7134607296E-01    7.1275331405E-01    7.5473689511E-01
    7.9717863162E-01    8.3995418398E-01    8.8293320185E-01    9.2597949391E-01
    9.6895122594E-01    1.0117011501E+00    1.0540768670E+00    1.0959211234E+00
    1.1370721464E+00    1.1773640181E+00    1.2166270977E+00    1.2546885009E+00
    1.2913726556E+00    1.3265019643E+00    1.3598976127E+00    1.3913805810E+00
    1.4207729206E+00    1.4478993606E+00    1.4725892882E+00    1.4946791047E+00
    1.5140148830E+00    1.5304551547E+00    1.5438735502E+00    1.5541609412E+00
    1.5612267282E+00    1.5649990095E+00    1.5654235626E+00    1.5624618180E+00
    1.5560882419E+00    1.5462876865E+00    1.5330532696E+00    1.5163852158E+00
    1.4962912995E+00    1.4727902888E+00    1.4459133791E+00    1.4157058845E+00
    1.3822295306E+00    1.3455645970E+00    1.3058154798E+00    1.2631335969E+00
    1.2176700853E+00    1.1695874282E+00    1.1190635272E+00    1.0662899797E+00
    1.0114700910E+00    9.5481677658E-01    8.9655049069E-01    8.3689726524E-01
    7.7608688851E-01    7.1435120760E-01    6.5192251973E-01    5.8903201972E-01
    5.2590828746E-01    4.6277581734E-01    3.9985360426E-01    3.3735380608E-01
    2.7548050058E-01    2.1442855127E-01    1.5438259199E-01    9.5516138185E-02
    3.7990834156E-02   -1.8044149473E-02   -7.2452544025E-02   -1.2511119878E-01
   -1.7591002899E-01   -2.2475162106E-01   -2.7155040350E-01   -3.1623128446E-01
   -3.5872766591E-01   -3.9897878036E-01   -4.3692636752E-01   -4.7251082083E-01
   -5.0566708447E-01   -5.3632075649E-01   -5.6438502223E-01   -5.8975915841E-01
   -6.1232935644E-01   -6.3197246125E-01   -6.4856288118E-01   -6.6198241020E-01
   -6.7213209207E-01   -6.7894467733E-01   -6.8239584347E-01   -6.8251231293E-01
   -6.7937539023E-01   -6.7311921253E-01   -6.6392400874E-01   -6.5200564863E-01
   -6.3760348133E-01   -6.2096872833E-01   -6.0235545983E-01   -5.8201550307E-01
   -5.6019716883E-01   -5.3714741781E-01   -5.1311752685E-01   -4.8837330732E-01
   -4.6304363468E-01   -4.3685234739E-01   -4.0990711798E-01   -3.8237564352E-01
   -3.5442527141E-01   -3.2622338055E-01   -2.9793655575E-01   -2.6972970724E-01
   -2.4176514223E-01   -2.1420159008E-01   -1.8719318494E-01   -1.6088841237E-01
   -1.3542902920E-01   -1.1094896846E-01   -8.7573243539E-02   -6.5416867673E-02
   -4.4583806629E-02   -2.5165983498E-02   -7.2423551525E-03    9.1219198888E-03
    2.3876202979E-02    3.6984967821E-02    4.8428247057E-02    5.8201917910E-02
    6.6317814142E-02    7.2803654219E-02    7.7702778573E-02    8.1073691876E-02
    8.2989409730E-02    8.3536612420E-02    8.2814611905E-02    8.0934141494E-02
    7.8015981004E-02    7.4189433140E-02    6.9590669810E-02    6.4360969432E-02
    5.8644868732E-02    5.2588254154E-02    4.6336419530E-02    4.0032117677E-02
    3.3813633963E-02    2.7812910230E-02    2.2153746732E-02    1.6950109206E-02
    1.2304566604E-02    8.3068834681E-03    5.0327886597E-03    2.5429395830E-03
    8.8239955584E-04    8.1774805360E-05    2.7693989430E-07   -1.6788784211E-07
    0.0000000000E+00    0.0000000000E+00    0.0000000000E+00    0.0000000000E+00
 0. 0. 0. 0.
 0. 0. 0. 0.
 0. 0. 0. 0.
 0. 0. 0. 0.
 0. 0. 0. 0.
 0. 0. 0. 0.
 0. 0. 0. 0.
 0. 0. 0. 0.
 0. 0. 0. 0.
 0. 0. 0. 0.
 0. 0. 0. 0.
 0. 0. 0. 0.
 0. 0. 0. 0.
 0. 0. 0. 0.
 0. 0. 0. 0.
 0. 0. 0. 0.
 0. 0. 0. 0.
 0. 0. 0. 0.
 0. 0. 0. 0.
 0. 0. 0. 0.
 0. 0. 0. 0.
 0. 0. 0. 0.
 0. 0. 0. 0.
 0. 0. 0. 0.
 0. 0. 0. 0.
 0. 0. 0. 0.
 0. 0. 0. 0.
 0. 0. 0. 0.
 0. 0. 0. 0.
 0. 0. 0. 0.
 0. 0. 0. 0.
 0. 0. 0. 0.
 0. 0. 0. 0.
 0. 0. 0. 0.
 0. 0. 0. 0.
 0. 0. 0. 0.
 0. 0. 0. 0.
 0. 0. 0. 0.
 0. 0. 0. 0.
 0. 0. 0. 0.
 0. 0. 0. 0.
 0. 0. 0. 0.
 0. 0. 0. 0.
 0. 0. 0. 0.
 0. 0. 0. 0.
 0. 0. 0. 0.
 0. 0. 0. 0.
 0. 0. 0. 0.
 0. 0. 0. 0.
 0. 0. 0. 0.
 0. 0. 0. 0.
 0. 0. 0. 0.
 0. 0. 0. 0.
 0. 0. 0. 0.
 0. 0. 0. 0.
 0. 0. 0. 0.
 0. 0. 0. 0.
 0. 0. 0. 0.
 0. 0. 0. 0.
 0. 0. 0. 0.
 0. 0. 0. 0.
 0. 0. 0. 0.
 0. 0. 0. 0.
 0. 0. 0. 0.
 0. 0. 0. 0.
 0. 0. 0. 0.
 0. 0. 0. 0.
 0. 0. 0. 0.
 0. 0. 0. 0.
 0. 0. 0. 0.
 0. 0. 0. 0.
 0. 0. 0. 0.
 0. 0. 0. 0.
 0. 0. 0. 0.
 0. 0. 0. 0.
 0. 0. 0. 0.
 0. 0. 0. 0.
 0. 0. 0. 0.
 0. 0. 0. 0.
 0. 0. 0. 0.
 0. 0. 0. 0.
 0. 0. 0. 0.
 0. 0. 0. 0.
 0. 0. 0. 0.
 0. 0. 0. 0.
 0. 0. 0. 0.
 0. 0. 0. 0.
 0. 0. 0. 0.
 0. 0. 0. 0.
 0. 0. 0. 0.
 0. 0. 0. 0.
 0. 0. 0. 0.
 0. 0. 0. 0.
 0. 0. 0. 0.
 0. 0. 0. 0.
 0. 0. 0. 0.
 0. 0. 0. 0.
 0. 0. 0. 0.
 0. 0. 0. 0.
 0. 0. 0. 0.
 0. 0. 0. 0.
 0. 0. 0. 0.
 0. 0. 0. 0.
 0. 0. 0. 0.
 0. 0. 0. 0.
 0. 0. 0. 0.
 0. 0. 0. 0.
 0. 0. 0. 0.
 0. 0. 0. 0.
 0. 0. 0. 0.
 0. 0. 0. 0.
 0. 0. 0. 0.
 0. 0. 0. 0.
 0. 0. 0. 0.
 0. 0. 0. 0.
 0. 0. 0. 0.
 0. 0. 0. 0.
 0. 0. 0. 0.
 0. 0. 0. 0.
 0. 0. 0. 0.
 0. 0. 0. 0.
 0. 0. 0. 0.
 0. 0. 0. 0.
 0. 0. 0. 0.
 0. 0. 0. 0.
 0. 0. 0. 0.
 0. 0. 0. 0.
 0. 0. 0. 0.
 0. 0. 0. 0.
 0. 0. 0. 0.
 0. 0. 0. 0.
 0. 0. 0. 0.
 0. 0. 0. 0.
 0. 0. 0. 0.
 0. 0. 0. 0.
 0. 0. 0. 0.
 0. 0. 0. 0.
 0. 0. 0. 0.
 0. 0. 0. 0.
 0. 0. 0. 0.
 0. 0. 0. 0.
 0. 0. 0. 0.
 0. 0. 0. 0.
 0. 0. 0. 0.
 0. 0. 0. 0.
 0. 0. 0. 0.
 0. 0. 0. 0.
 0. 0. 0. 0.
 0. 0. 0. 0.
 0. 0. 0. 0.
 0. 0. 0. 0.
 0. 0. 0. 0.
 0. 0. 0. 0.
 0. 0. 0. 0.
 0. 0. 0. 0.
 0. 0. 0. 0.
 0. 0. 0. 0.
 0. 0. 0. 0.
 0. 0. 0. 0.
 0. 0. 0. 0.
 0. 0. 0. 0.
 0. 0. 0. 0.
 0. 0. 0. 0.
 0. 0. 0. 0.
 0. 0. 0. 0.
 0. 0. 0. 0.
 0. 0. 0. 0.
 0. 0. 0. 0.
 0. 0. 0. 0.
 0. 0. 0. 0.
 0. 0. 0. 0.
 0. 0. 0. 0.
 0. 0. 0. 0.
 0. 0. 0. 0.
 0. 0. 0. 0.
 0. 0. 0. 0.
 0. 0. 0. 0.
 0. 0. 0. 0.
 0. 0. 0. 0.
 0. 0. 0. 0.
 0. 0. 0. 0.
 0. 0. 0. 0.
 0. 0. 0. 0.
 0. 0. 0. 0.
 0. 0. 0. 0.
 0. 0. 0. 0.
 0. 0. 0. 0.
 0. 0. 0. 0.
 0. 0. 0. 0.
 0. 0. 0. 0.
 0. 0. 0. 0.
 0. 0. 0. 0.
 0. 0. 0. 0.
 0. 0. 0. 0.
 0. 0. 0. 0.
 0. 0. 0. 0.
 0. 0. 0. 0.
 0. 0. 0. 0.
 0. 0. 0. 0.
 0. 0. 0. 0.
 0. 0. 0. 0.
 0. 0. 0. 0.
 0. 0. 0. 0.
 0. 0. 0. 0.
 0. 0. 0. 0.
 0. 0. 0. 0.
 0. 0. 0. 0.
 0. 0. 0. 0.
 0. 0. 0. 0.
 0. 0. 0. 0.
 0. 0. 0. 0.
 0. 0. 0. 0.
 0. 0. 0. 0.
 0. 0. 0. 0.
 0. 0. 0. 0.
 0. 0. 0. 0.
 0. 0. 0. 0.
 0. 0. 0. 0.
 0. 0. 0. 0.
 0. 0. 0. 0.
 0. 0. 0. 0.
 0. 0. 0. 0.
 0. 0. 0. 0.
 0. 0. 0. 0.
 0. 0. 0. 0.
 0. 0. 0. 0.
 0. 0. 0. 0.
 0. 0. 0. 0.
 0. 0. 0. 0.
 0. 0. 0. 0.
 0. 0. 0. 0.
 0. 0. 0. 0.
 0. 0. 0. 0.
 0. 0. 0. 0.
 0. 0. 0. 0.
 0. 0. 0. 0.
 0. 0. 0. 0.
 0. 0. 0. 0.
 0. 0. 0. 0.
 0. 0. 0. 0.
 0. 0. 0. 0.
 0. 0. 0. 0.
 0. 0. 0. 0.
 0. 0. 0. 0.
 0. 0. 0. 0.
 0. 0. 0. 0.
 0. 0. 0. 0.
 0. 0. 0. 0.
 0. 0. 0. 0.
 0. 0. 0. 0.
 0. 0. 0. 0.
 0. 0. 0. 0.
 0. 0. 0. 0.
 0. 0. 0. 0.
 0. 0. 0. 0.
 0. 0. 0. 0.
 0. 0. 0. 0.
 0. 0. 0. 0.
 0. 0. 0. 0.
 0. 0. 0. 0.
 0. 0. 0. 0.
 0. 0. 0. 0.
 0. 0. 0. 0.
 0. 0. 0. 0.
 0. 0. 0. 0.
 0. 0. 0. 0.
 0. 0. 0. 0.
 0. 0. 0. 0.
 0. 0. 0. 0.
 0. 0. 0. 0.
 0. 0. 0. 0.
 0. 0. 0. 0.
 0. 0. 0. 0.
 0. 0. 0. 0.
   </PP_BETA.5>
   <PP_BETA.6
       type="real"
       size="1288"
       columns="4"
       index="6"
       angular_momentum="2"
       cutoff_radius_index=" 192"
       cutoff_radius="    1.9100000000E+00" >
   -9.9194297654E-10   -1.1835974971E-05   -9.4507133996E-05   -3.1794816763E-04
   -7.5030595252E-04   -1.4570783150E-03   -2.5002912709E-03   -3.9377263711E-03
   -5.8222087884E-03   -8.2009655859E-03   -1.1115062225E-02   -1.4598923845E-02
   -1.8679946200E-02   -2.3378199413E-02   -2.8706225940E-02   -3.4668932360E-02
   -4.1263572885E-02   -4.8479820796E-02   -5.6299922485E-02   -6.4698927355E-02
   -7.3644985600E-02   -8.3099704855E-02   -9.3018555900E-02   -1.0335131702E-01
   -1.1404254633E-01   -1.2503207125E-01   -1.3625548466E-01   -1.4764463747E-01
   -1.5912811837E-01   -1.7063171197E-01   -1.8207882822E-01   -1.9339089666E-01
   -2.0448772096E-01   -2.1528779042E-01   -2.2570854670E-01   -2.3566660578E-01
   -2.4507793646E-01   -2.5385799833E-01   -2.6192184362E-01   -2.6918418822E-01
   -2.7555945878E-01   -2.8096182320E-01   -2.8530521289E-01   -2.8850334587E-01
   -2.9046976024E-01   -2.9111786826E-01   -2.9036104242E-01   -2.8811274606E-01
   -2.8428672324E-01   -2.7879726572E-01   -2.7155957881E-01   -2.6249027327E-01
   -2.5150801590E-01   -2.3853437606E-01   -2.2349490725E-01   -2.0632049691E-01
   -1.8694900042E-01   -1.6532714074E-01   -1.4141260050E-01   -1.1517616067E-01
   -8.6603660457E-02   -5.5697489576E-02   -2.2477308697E-02    1.3020242132E-02
    5.0742928565E-02    9.0625248355E-02    1.3259129657E-01    1.7655758429E-01
    2.2243518464E-01    2.7013070859E-01    3.1954587466E-01    3.7057574344E-01
    4.2310531802E-01    4.7700340102E-01    5.3212157051E-01    5.8829325029E-01
    6.4533259710E-01    7.0303422224E-01    7.6116943228E-01    8.1946614292E-01
    8.7766804090E-01    9.3551714180E-01    9.9274979342E-01    1.0490995734E+00
    1.1043001844E+00    1.1580882055E+00    1.2102056102E+00    1.2604020268E+00
    1.3084367614E+00    1.3540806290E+00    1.3971176336E+00    1.4373465180E+00
    1.4745821803E+00    1.5086569383E+00    1.5394216122E+00    1.5667464010E+00
    1.5905215306E+00    1.6106576614E+00    1.6270860477E+00    1.6397584493E+00
    1.6486467940E+00    1.6537425970E+00    1.6550561401E+00    1.6526154171E+00
    1.6464648550E+00    1.6366638237E+00    1.6232849606E+00    1.6064123466E+00
    1.5861395978E+00    1.5625679579E+00    1.5358045136E+00    1.5059606773E+00
    1.4731511036E+00    1.4374932023E+00    1.3991073747E+00    1.3581180331E+00
    1.3146553466E+00    1.2688575226E+00    1.2208732868E+00    1.1708641121E+00
    1.1190057037E+00    1.0654883001E+00    1.0105155133E+00    9.5430168483E-01
    8.9706801950E-01    8.3903801768E-01    7.8043288331E-01    7.2146759757E-01
    6.6234821759E-01    6.0327072093E-01    5.4442144002E-01    4.8597880653E-01
    4.2811434073E-01    3.7099279798E-01    3.1477467598E-01    2.5961978473E-01
    2.0566123888E-01    1.5296737538E-01    1.0168669103E-01    5.1976720019E-02
    3.9921062537E-03   -4.2115721926E-02   -8.6199217251E-02   -1.2811550223E-01
   -1.6772727902E-01   -2.0490385592E-01   -2.3952228224E-01   -2.7146857922E-01
   -3.0063905041E-01   -3.2694165137E-01   -3.5029739478E-01   -3.7064176379E-01
   -3.8792610437E-01   -4.0211896487E-01   -4.1320735026E-01   -4.2119785802E-01
   -4.2611766288E-01   -4.2801531903E-01   -4.2696135036E-01   -4.2304860206E-01
   -4.1639233042E-01   -4.0713001184E-01   -3.9542085668E-01   -3.8144501866E-01
   -3.6540249614E-01   -3.4751172707E-01   -3.2800788527E-01   -3.0714089133E-01
   -2.8517315717E-01   -2.6237708834E-01   -2.3903237330E-01   -2.1542309322E-01
   -1.9183468999E-01   -1.6855083308E-01   -1.4585022887E-01   -1.2400341762E-01
   -1.0326960451E-01   -8.3893571589E-02   -6.6102716512E-02   -5.0104263281E-02
   -3.6082687463E-02   -2.4197395975E-02   -1.4580697760E-02   -7.3360973819E-03
   -2.5378030148E-03   -2.3472301412E-04   -7.9462639983E-07    4.8203007025E-07
    0.0000000000E+00    0.0000000000E+00    0.0000000000E+00    0.0000000000E+00
 0. 0. 0. 0.
 0. 0. 0. 0.
 0. 0. 0. 0.
 0. 0. 0. 0.
 0. 0. 0. 0.
 0. 0. 0. 0.
 0. 0. 0. 0.
 0. 0. 0. 0.
 0. 0. 0. 0.
 0. 0. 0. 0.
 0. 0. 0. 0.
 0. 0. 0. 0.
 0. 0. 0. 0.
 0. 0. 0. 0.
 0. 0. 0. 0.
 0. 0. 0. 0.
 0. 0. 0. 0.
 0. 0. 0. 0.
 0. 0. 0. 0.
 0. 0. 0. 0.
 0. 0. 0. 0.
 0. 0. 0. 0.
 0. 0. 0. 0.
 0. 0. 0. 0.
 0. 0. 0. 0.
 0. 0. 0. 0.
 0. 0. 0. 0.
 0. 0. 0. 0.
 0. 0. 0. 0.
 0. 0. 0. 0.
 0. 0. 0. 0.
 0. 0. 0. 0.
 0. 0. 0. 0.
 0. 0. 0. 0.
 0. 0. 0. 0.
 0. 0. 0. 0.
 0. 0. 0. 0.
 0. 0. 0. 0.
 0. 0. 0. 0.
 0. 0. 0. 0.
 0. 0. 0. 0.
 0. 0. 0. 0.
 0. 0. 0. 0.
 0. 0. 0. 0.
 0. 0. 0. 0.
 0. 0. 0. 0.
 0. 0. 0. 0.
 0. 0. 0. 0.
 0. 0. 0. 0.
 0. 0. 0. 0.
 0. 0. 0. 0.
 0. 0. 0. 0.
 0. 0. 0. 0.
 0. 0. 0. 0.
 0. 0. 0. 0.
 0. 0. 0. 0.
 0. 0. 0. 0.
 0. 0. 0. 0.
 0. 0. 0. 0.
 0. 0. 0. 0.
 0. 0. 0. 0.
 0. 0. 0. 0.
 0. 0. 0. 0.
 0. 0. 0. 0.
 0. 0. 0. 0.
 0. 0. 0. 0.
 0. 0. 0. 0.
 0. 0. 0. 0.
 0. 0. 0. 0.
 0. 0. 0. 0.
 0. 0. 0. 0.
 0. 0. 0. 0.
 0. 0. 0. 0.
 0. 0. 0. 0.
 0. 0. 0. 0.
 0. 0. 0. 0.
 0. 0. 0. 0.
 0. 0. 0. 0.
 0. 0. 0. 0.
 0. 0. 0. 0.
 0. 0. 0. 0.
 0. 0. 0. 0.
 0. 0. 0. 0.
 0. 0. 0. 0.
 0. 0. 0. 0.
 0. 0. 0. 0.
 0. 0. 0. 0.
 0. 0. 0. 0.
 0. 0. 0. 0.
 0. 0. 0. 0.
 0. 0. 0. 0.
 0. 0. 0. 0.
 0. 0. 0. 0.
 0. 0. 0. 0.
 0. 0. 0. 0.
 0. 0. 0. 0.
 0. 0. 0. 0.
 0. 0. 0. 0.
 0. 0. 0. 0.
 0. 0. 0. 0.
 0. 0. 0. 0.
 0. 0. 0. 0.
 0. 0. 0. 0.
 0. 0. 0. 0.
 0. 0. 0. 0.
 0. 0. 0. 0.
 0. 0. 0. 0.
 0. 0. 0. 0.
 0. 0. 0. 0.
 0. 0. 0. 0.
 0. 0. 0. 0.
 0. 0. 0. 0.
 0. 0. 0. 0.
 0. 0. 0. 0.
 0. 0. 0. 0.
 0. 0. 0. 0.
 0. 0. 0. 0.
 0. 0. 0. 0.
 0. 0. 0. 0.
 0. 0. 0. 0.
 0. 0. 0. 0.
 0. 0. 0. 0.
 0. 0. 0. 0.
 0. 0. 0. 0.
 0. 0. 0. 0.
 0. 0. 0. 0.
 0. 0. 0. 0.
 0. 0. 0. 0.
 0. 0. 0. 0.
 0. 0. 0. 0.
 0. 0. 0. 0.
 0. 0. 0. 0.
 0. 0. 0. 0.
 0. 0. 0. 0.
 0. 0. 0. 0.
 0. 0. 0. 0.
 0. 0. 0. 0.
 0. 0. 0. 0.
 0. 0. 0. 0.
 0. 0. 0. 0.
 0. 0. 0. 0.
 0. 0. 0. 0.
 0. 0. 0. 0.
 0. 0. 0. 0.
 0. 0. 0. 0.
 0. 0. 0. 0.
 0. 0. 0. 0.
 0. 0. 0. 0.
 0. 0. 0. 0.
 0. 0. 0. 0.
 0. 0. 0. 0.
 0. 0. 0. 0.
 0. 0. 0. 0.
 0. 0. 0. 0.
 0. 0. 0. 0.
 0. 0. 0. 0.
 0. 0. 0. 0.
 0. 0. 0. 0.
 0. 0. 0. 0.
 0. 0. 0. 0.
 0. 0. 0. 0.
 0. 0. 0. 0.
 0. 0. 0. 0.
 0. 0. 0. 0.
 0. 0. 0. 0.
 0. 0. 0. 0.
 0. 0. 0. 0.
 0. 0. 0. 0.
 0. 0. 0. 0.
 0. 0. 0. 0.
 0. 0. 0. 0.
 0. 0. 0. 0.
 0. 0. 0. 0.
 0. 0. 0. 0.
 0. 0. 0. 0.
 0. 0. 0. 0.
 0. 0. 0. 0.
 0. 0. 0. 0.
 0. 0. 0. 0.
 0. 0. 0. 0.
 0. 0. 0. 0.
 0. 0. 0. 0.
 0. 0. 0. 0.
 0. 0. 0. 0.
 0. 0. 0. 0.
 0. 0. 0. 0.
 0. 0. 0. 0.
 0. 0. 0. 0.
 0. 0. 0. 0.
 0. 0. 0. 0.
 0. 0. 0. 0.
 0. 0. 0. 0.
 0. 0. 0. 0.
 0. 0. 0. 0.
 0. 0. 0. 0.
 0. 0. 0. 0.
 0. 0. 0. 0.
 0. 0. 0. 0.
 0. 0. 0. 0.
 0. 0. 0. 0.
 0. 0. 0. 0.
 0. 0. 0. 0.
 0. 0. 0. 0.
 0. 0. 0. 0.
 0. 0. 0. 0.
 0. 0. 0. 0.
 0. 0. 0. 0.
 0. 0. 0. 0.
 0. 0. 0. 0.
 0. 0. 0. 0.
 0. 0. 0. 0.
 0. 0. 0. 0.
 0. 0. 0. 0.
 0. 0. 0. 0.
 0. 0. 0. 0.
 0. 0. 0. 0.
 0. 0. 0. 0.
 0. 0. 0. 0.
 0. 0. 0. 0.
 0. 0. 0. 0.
 0. 0. 0. 0.
 0. 0. 0. 0.
 0. 0. 0. 0.
 0. 0. 0. 0.
 0. 0. 0. 0.
 0. 0. 0. 0.
 0. 0. 0. 0.
 0. 0. 0. 0.
 0. 0. 0. 0.
 0. 0. 0. 0.
 0. 0. 0. 0.
 0. 0. 0. 0.
 0. 0. 0. 0.
 0. 0. 0. 0.
 0. 0. 0. 0.
 0. 0. 0. 0.
 0. 0. 0. 0.
 0. 0. 0. 0.
 0. 0. 0. 0.
 0. 0. 0. 0.
 0. 0. 0. 0.
 0. 0. 0. 0.
 0. 0. 0. 0.
 0. 0. 0. 0.
 0. 0. 0. 0.
 0. 0. 0. 0.
 0. 0. 0. 0.
 0. 0. 0. 0.
 0. 0. 0. 0.
 0. 0. 0. 0.
 0. 0. 0. 0.
 0. 0. 0. 0.
 0. 0. 0. 0.
 0. 0. 0. 0.
 0. 0. 0. 0.
 0. 0. 0. 0.
 0. 0. 0. 0.
 0. 0. 0. 0.
 0. 0. 0. 0.
 0. 0. 0. 0.
 0. 0. 0. 0.
 0. 0. 0. 0.
 0. 0. 0. 0.
 0. 0. 0. 0.
 0. 0. 0. 0.
 0. 0. 0. 0.
 0. 0. 0. 0.
 0. 0. 0. 0.
 0. 0. 0. 0.
 0. 0. 0. 0.
 0. 0. 0. 0.
 0. 0. 0. 0.
 0. 0. 0. 0.
 0. 0. 0. 0.
   </PP_BETA.6>
   <PP_DIJ type="real"  size="  36" columns="4">
    6.8199104460E+00    0.0000000000E+00    0.0000000000E+00    0.0000000000E+00
    0.0000000000E+00    0.0000000000E+00    0.0000000000E+00   -1.6881575732E+00
    0.0000000000E+00    0.0000000000E+00    0.0000000000E+00    0.0000000000E+00
    0.0000000000E+00    0.0000000000E+00   -7.6903818743E+00    0.0000000000E+00
    0.0000000000E+00    0.0000000000E+00    0.0000000000E+00    0.0000000000E+00
    0.0000000000E+00   -2.2279476740E+00    0.0000000000E+00    0.0000000000E+00
    0.0000000000E+00    0.0000000000E+00    0.0000000000E+00    0.0000000000E+00
   -1.2736581534E+01    0.0000000000E+00    0.0000000000E+00    0.0000000000E+00
    0.0000000000E+00    0.0000000000E+00    0.0000000000E+00   -5.0356971089E+00
   </PP_DIJ>
 </PP_NONLOCAL>
 <PP_PSWFC>
   <PP_CHI.1
       type="real"
       size="1288"
       columns="4"
       index="1"
       occupation=" 2.000"
       pseudo_energy="   -0.9815129912E+01"
       label="3S"
       l="0" >
    2.4577562208E-12    3.6056013714E-02    7.2076537665E-02    1.0802613867E-01
    1.4386949665E-01    1.7957146091E-01    2.1509710627E-01    2.5041178875E-01
    2.8548120091E-01    3.2027142654E-01    3.5474899486E-01    3.8888093388E-01
    4.2263482299E-01    4.5597884457E-01    4.8888183456E-01    5.2131333185E-01
    5.5324362639E-01    5.8464380586E-01    6.1548580088E-01    6.4574242842E-01
    6.7538743364E-01    7.0439552960E-01    7.3274243517E-01    7.6040491061E-01
    7.8736079113E-01    8.1358901787E-01    8.3906966665E-01    8.6378397410E-01
    8.8771436118E-01    9.1084445409E-01    9.3315910242E-01    9.5464439459E-01
    9.7528767043E-01    9.9507753103E-01    1.0140038457E+00    1.0320577563E+00
    1.0492316785E+00    1.0655193005E+00    1.0809155792E+00    1.0954167335E+00
    1.1090202349E+00    1.1217247960E+00    1.1335303566E+00    1.1444380669E+00
    1.1544502691E+00    1.1635704769E+00    1.1718033526E+00    1.1791546825E+00
    1.1856313508E+00    1.1912413112E+00    1.1959935580E+00    1.1998980943E+00
    1.2029659003E+00    1.2052088992E+00    1.2066399228E+00    1.2072726756E+00
    1.2071216979E+00    1.2062023279E+00    1.2045306638E+00    1.2021235237E+00
    1.1989984062E+00    1.1951734494E+00    1.1906673901E+00    1.1854995217E+00
    1.1796896522E+00    1.1732580619E+00    1.1662254598E+00    1.1586129410E+00
    1.1504419431E+00    1.1417342020E+00    1.1325117089E+00    1.1227966660E+00
    1.1126114427E+00    1.1019785321E+00    1.0909205079E+00    1.0794599809E+00
    1.0676195565E+00    1.0554217932E+00    1.0428891609E+00    1.0300440006E+00
    1.0169084850E+00    1.0035045802E+00    9.8985400809E-01    9.7597821106E-01
    9.6189831706E-01    9.4763510698E-01    9.3320898333E-01    9.1863994094E-01
    9.0394753930E-01    8.8915087710E-01    8.7426856863E-01    8.5931872242E-01
    8.4431892190E-01    8.2928620838E-01    8.1423706610E-01    7.9918740959E-01
    7.8415257312E-01    7.6914730233E-01    7.5418574799E-01    7.3928146174E-01
    7.2444739383E-01    7.0969589263E-01    6.9503870604E-01    6.8048698437E-01
    6.6605128485E-01    6.5174157746E-01    6.3756725202E-01    6.2353712635E-01
    6.0965945539E-01    5.9594194117E-01    5.8239174337E-01    5.6901549048E-01
    5.5581929133E-01    5.4280874693E-01    5.2998896242E-01    5.1736455913E-01
    5.0493968659E-01    4.9271803442E-01    4.8070284400E-01    4.6889691990E-01
    4.5730264100E-01    4.4592197120E-01    4.3475646977E-01    4.2380730125E-01
    4.1307524498E-01    4.0256070414E-01    3.9226371441E-01    3.8218395224E-01
    3.7232074275E-01    3.6267306737E-01    3.5323957109E-01    3.4401856957E-01
    3.3500805594E-01    3.2620570751E-01    3.1760889220E-01    3.0921467496E-01
    3.0101982596E-01    2.9302089473E-01    2.8521437667E-01    2.7759675923E-01
    2.7016452699E-01    2.6291416647E-01    2.5584217071E-01    2.4894504353E-01
    2.4221930364E-01    2.3566148844E-01    2.2926815758E-01    2.2303589630E-01
    2.1696131850E-01    2.1104106961E-01    2.0527182917E-01    1.9965031319E-01
    1.9417327630E-01    1.8883751369E-01    1.8363986273E-01    1.7857720455E-01
    1.7364646527E-01    1.6884461712E-01    1.6416867940E-01    1.5961571921E-01
    1.5518285212E-01    1.5086724260E-01    1.4666610442E-01    1.4257670088E-01
    1.3859634496E-01    1.3472239934E-01    1.3095227640E-01    1.2728343805E-01
    1.2371339563E-01    1.2023970958E-01    1.1685998921E-01    1.1357189234E-01
    1.1037312488E-01    1.0726144044E-01    1.0423463986E-01    1.0129057071E-01
    9.8427126795E-02    9.5642247581E-02    9.2933917647E-02    9.0300166098E-02
    8.7739065961E-02    8.5248733569E-02    8.2827327926E-02    8.0473050062E-02
    7.8184142382E-02    7.5958888000E-02    7.3795610062E-02    7.1692671078E-02
    6.9648472228E-02    6.7661452681E-02    6.5730088903E-02    6.3852893967E-02
    6.2028416860E-02    6.0255241795E-02    5.8531987521E-02    5.6857306636E-02
    5.5229884913E-02    5.3648440616E-02    5.2111723836E-02    5.0618515822E-02
    4.9167628331E-02    4.7757902978E-02    4.6388210594E-02    4.5057450600E-02
    4.3764550382E-02    4.2508464686E-02    4.1288175012E-02    4.0102689023E-02
    3.8951039971E-02    3.7832286120E-02    3.6745510190E-02    3.5689818806E-02
    3.4664341961E-02    3.3668232485E-02    3.2700665526E-02    3.1760838042E-02
    3.0847968298E-02    2.9961295379E-02    2.9100078704E-02    2.8263597557E-02
    2.7451150620E-02    2.6662055519E-02    2.5895648372E-02    2.5151283358E-02
    2.4428332274E-02    2.3726184122E-02    2.3044244682E-02    2.2381936111E-02
    2.1738696535E-02    2.1113979660E-02    2.0507254379E-02    1.9918004395E-02
    1.9345727845E-02    1.8789936935E-02    1.8250157578E-02    1.7725929046E-02
    1.7216803617E-02    1.6722346240E-02    1.6242134200E-02    1.5775756795E-02
    1.5322815012E-02    1.4882921219E-02    1.4455698856E-02    1.4040782136E-02
    1.3637815754E-02    1.3246454597E-02    1.2866363468E-02    1.2497216808E-02
    1.2138698433E-02    1.1790501272E-02    1.1452327111E-02    1.1123886344E-02
    1.0804897736E-02    1.0495088178E-02    1.0194192466E-02    9.9019530679E-03
    9.6181199123E-03    9.3424501702E-03    9.0747080503E-03    8.8146645960E-03
    8.5620974894E-03    8.3167908598E-03    8.0785350979E-03    7.8471266746E-03
    7.6223679654E-03    7.4040670790E-03    7.1920376912E-03    6.9860988831E-03
    6.7860749841E-03    6.5917954193E-03    6.4030945610E-03    6.2198115849E-03
    6.0417903296E-03    5.8688791615E-03    5.7009308420E-03    5.5378023995E-03
    5.3793550053E-03    5.2254538522E-03    5.0759680374E-03    4.9307704484E-03
    4.7897376527E-03    4.6527497901E-03    4.5196904683E-03    4.3904466625E-03
    4.2649086162E-03    4.1429697467E-03    4.0245265518E-03    3.9094785208E-03
    3.7977280466E-03    3.6891803417E-03    3.5837433556E-03    3.4813276955E-03
    3.3818465485E-03    3.2852156072E-03    3.1913529961E-03    3.1001792013E-03
    3.0116170020E-03    2.9255914032E-03    2.8420295721E-03    2.7608607743E-03
    2.6820163137E-03    2.6054294726E-03    2.5310354552E-03    2.4587713313E-03
    2.3885759821E-03    2.3203900485E-03    2.2541558792E-03    2.1898174820E-03
    2.1273204755E-03    2.0666120424E-03    2.0076408845E-03    1.9503571786E-03
    1.8947125339E-03    1.8406599509E-03    1.7881537808E-03    1.7371496866E-03
    1.6876046057E-03    1.6394767125E-03    1.5927253829E-03    1.5473111599E-03
    1.5031957197E-03    1.4603418391E-03    1.4187133640E-03    1.3782751780E-03
    1.3389931733E-03    1.3008342210E-03    1.2637661433E-03    1.2277576859E-03
    1.1927784916E-03    1.1587990744E-03    1.1257907944E-03    1.0937258335E-03
    1.0625771718E-03    1.0323185646E-03    1.0029245201E-03    9.7437027774E-04
    9.4663178740E-04    9.1968568863E-04    8.9350929108E-04    8.6808055517E-04
    8.4337807340E-04    8.1938105218E-04    7.9606929422E-04    7.7342318141E-04
    7.5142365816E-04    7.3005221525E-04    7.0929087418E-04    6.8912217190E-04
    6.6952914601E-04    6.5049532041E-04    6.3200469134E-04    6.1404171380E-04
    5.9659128840E-04    5.7963874860E-04    5.6316984823E-04    5.4717074947E-04
    5.3162801112E-04    5.1652857724E-04    5.0185976606E-04    4.8760925926E-04
    4.7376509158E-04    4.6031564062E-04    4.4724961709E-04    4.3455605516E-04
    4.2222430327E-04    4.1024401505E-04    3.9860514063E-04    3.8729791806E-04
    3.7631286511E-04    3.6564077123E-04    3.5527268975E-04    3.4519993032E-04
    3.3541405155E-04    3.2590685391E-04    3.1667037272E-04    3.0769687148E-04
    2.9897883529E-04    2.9050896453E-04    2.8228016864E-04    2.7428556016E-04
    2.6651844889E-04    2.5897233626E-04    2.5164090977E-04    2.4451803774E-04
    2.3759776406E-04    2.3087430319E-04    2.2434203525E-04    2.1799550127E-04
    2.1182939859E-04    2.0583857638E-04    2.0001803127E-04    1.9436290312E-04
    1.8886847094E-04    1.8353014887E-04    1.7834348232E-04    1.7330414421E-04
    1.6840793130E-04    1.6365076065E-04    1.5902866618E-04    1.5453779529E-04
    1.5017440564E-04    1.4593486197E-04    1.4181563303E-04    1.3781328861E-04
    1.3392449661E-04    1.3014602029E-04    1.2647471547E-04    1.2290752792E-04
    1.1944149077E-04    1.1607372199E-04    1.1280142198E-04    1.0962187120E-04
    1.0653242786E-04    1.0353052572E-04    1.0061367190E-04    9.7779444797E-05
    9.5025492024E-05    9.2349528437E-05    8.9749334205E-05    8.7222752939E-05
    8.4767689874E-05    8.2382110102E-05    8.0064036858E-05    7.7811549854E-05
    7.5622783662E-05    7.3495926136E-05    7.1429216896E-05    6.9420945835E-05
    6.7469451684E-05    6.5573120613E-05    6.3730384869E-05    6.1939721460E-05
    6.0199650871E-05    5.8508735817E-05    5.6865580037E-05    5.5268827118E-05
    5.3717159353E-05    5.2209296633E-05    5.0743995370E-05    4.9320047455E-05
    4.7936279235E-05    4.6591550534E-05    4.5284753690E-05    4.4014812627E-05
    4.2780681949E-05    4.1581346063E-05    4.0415818325E-05    3.9283140214E-05
    3.8182380523E-05    3.7112634584E-05    3.6073023501E-05    3.5062693418E-05
    3.4080814801E-05    3.3126581744E-05    3.2199211290E-05    3.1297942777E-05
    3.0422037198E-05    2.9570776587E-05    2.8743463412E-05    2.7939419993E-05
    2.7157987933E-05    2.6398527571E-05    2.5660417440E-05    2.4943053754E-05
    2.4245849898E-05    2.3568235936E-05    2.2909658141E-05    2.2269578527E-05
    2.1647474399E-05    2.1042837918E-05    2.0455175678E-05    1.9884008290E-05
    1.9328869985E-05    1.8789308224E-05    1.8264883320E-05    1.7755168073E-05
    1.7259747409E-05    1.6778218039E-05    1.6310188122E-05    1.5855276935E-05
    1.5413114559E-05    1.4983341568E-05    1.4565608733E-05    1.4159576731E-05
    1.3764915858E-05    1.3381305759E-05    1.3008435163E-05    1.2646001616E-05
    1.2293711241E-05    1.1951278484E-05    1.1618425881E-05    1.1294883828E-05
    1.0980390356E-05    1.0674690913E-05    1.0377538154E-05    1.0088691735E-05
    9.8079181137E-06    9.5349903570E-06    9.2696879508E-06    9.0117966192E-06
    8.7611081457E-06    8.5174202019E-06    8.2805361791E-06    8.0502650260E-06
    7.8264210907E-06    7.6088239672E-06    7.3972983458E-06    7.1916738688E-06
    6.9917849896E-06    6.7974708357E-06    6.6085750761E-06    6.4249457925E-06
    6.2464353534E-06    6.0729002931E-06    5.9042011925E-06    5.7402025651E-06
    5.5807727448E-06    5.4257837777E-06    5.2751113166E-06    5.1286345189E-06
    4.9862359469E-06    4.8478014716E-06    4.7132201784E-06    4.5823842762E-06
    4.4551890092E-06    4.3315325701E-06    4.2113160173E-06    4.0944431930E-06
    3.9808206450E-06    3.8703575497E-06    3.7629656377E-06    3.6585591215E-06
    3.5570546252E-06    3.4583711164E-06    3.3624298397E-06    3.2691542523E-06
    3.1784699616E-06    3.0903046640E-06    3.0045880863E-06    2.9212519279E-06
    2.8402298052E-06    2.7614571975E-06    2.6848713942E-06    2.6104114438E-06
    2.5380181041E-06    2.4676337939E-06    2.3992025463E-06    2.3326699630E-06
    2.2679831699E-06    2.2050907743E-06    2.1439428232E-06    2.0844907621E-06
    2.0266873963E-06    1.9704868521E-06    1.9158445397E-06    1.8627171171E-06
    1.8110624547E-06    1.7608396012E-06    1.7120087508E-06    1.6645312104E-06
    1.6183693684E-06    1.5734866645E-06    1.5298475601E-06    1.4874175091E-06
    1.4461629305E-06    1.4060511809E-06    1.3670505285E-06    1.3291301269E-06
    1.2922599909E-06    1.2564109718E-06    1.2215547340E-06    1.1876637322E-06
    1.1547111894E-06    1.1226710748E-06    1.0915180836E-06    1.0612276159E-06
    1.0317757573E-06    1.0031392596E-06    9.7529552215E-07    9.4822257362E-07
    9.2189905438E-07    8.9630419935E-07    8.7141782135E-07    8.4722029490E-07
    8.2369254050E-07    8.0081600930E-07    7.7857266828E-07    7.5694498579E-07
    7.3591591754E-07    7.1546889292E-07    6.9558780178E-07    6.7625698157E-07
    6.5746120476E-07    6.3918566673E-07    6.2141597395E-07    6.0413813246E-07
    5.8733853673E-07    5.7100395881E-07    5.5512153775E-07    5.3967876942E-07
    5.2466349650E-07    5.1006389880E-07    4.9586848389E-07    4.8206607790E-07
    4.6864581672E-07    4.5559713726E-07    4.4290976915E-07    4.3057372654E-07
    4.1857930015E-07    4.0691704962E-07    3.9557779597E-07    3.8455261436E-07
    3.7383282698E-07    3.6340999623E-07    3.5327591794E-07    3.4342261499E-07
    3.3384233090E-07    3.2452752375E-07    3.1547086021E-07    3.0666520970E-07
    2.9810363881E-07    2.8977940579E-07    2.8168595523E-07    2.7381691288E-07
    2.6616608066E-07    2.5872743171E-07    2.5149510566E-07    2.4446340404E-07
    2.3762678576E-07    2.3097986273E-07    2.2451739566E-07    2.1823428990E-07
    2.1212559143E-07    2.0618648300E-07    2.0041228031E-07    1.9479842831E-07
    1.8934049767E-07    1.8403418125E-07    1.7887529075E-07    1.7385975342E-07
    1.6898360882E-07    1.6424300577E-07    1.5963419930E-07    1.5515354771E-07
    1.5079750970E-07    1.4656264165E-07    1.4244559485E-07    1.3844311292E-07
    1.3455202927E-07    1.3076926455E-07    1.2709182434E-07    1.2351679673E-07
    1.2004135005E-07    1.1666273069E-07    1.1337826092E-07    1.1018533680E-07
    1.0708142614E-07    1.0406406654E-07    1.0113086343E-07    9.8279488238E-08
    9.5507676539E-08    9.2813226306E-08    9.0193996180E-08    8.7647903804E-08
    8.5172924192E-08    8.2767088152E-08    8.0428480744E-08    7.8155239794E-08
    7.5945554432E-08    7.3797663683E-08    7.1709855094E-08    6.9680463397E-08
    6.7707869209E-08    6.5790497772E-08    6.3926817722E-08    6.2115339896E-08
    6.0354616171E-08    5.8643238335E-08    5.6979836988E-08    5.5363080475E-08
    5.3791673850E-08    5.2264357862E-08    5.0779907978E-08    4.9337133425E-08
    4.7934876264E-08    4.6572010486E-08    4.5247441136E-08    4.3960103455E-08
    4.2708962056E-08    4.1493010113E-08    4.0311268577E-08    3.9162785412E-08
    3.8046634854E-08    3.6961916687E-08    3.5907755544E-08    3.4883300220E-08
    3.3887723014E-08    3.2920219077E-08    3.1980005787E-08    3.1066322142E-08
    3.0178428157E-08    2.9315604295E-08    2.8477150902E-08    2.7662387660E-08
    2.6870653056E-08    2.6101303869E-08    2.5353714660E-08    2.4627277292E-08
    2.3921400446E-08    2.3235509168E-08    2.2569044410E-08    2.1921462602E-08
    2.1292235219E-08    2.0680848372E-08    2.0086802403E-08    1.9509611498E-08
    1.8948803302E-08    1.8403918551E-08    1.7874510711E-08    1.7360145632E-08
    1.6860401200E-08    1.6374867016E-08    1.5903144062E-08    1.5444844400E-08
    1.4999590858E-08    1.4567016738E-08    1.4146765527E-08    1.3738490619E-08
    1.3341855038E-08    1.2956531174E-08    1.2582200531E-08    1.2218553466E-08
    1.1865288955E-08    1.1522114349E-08    1.1188745145E-08    1.0864904764E-08
    1.0550324331E-08    1.0244742461E-08    9.9479050543E-09    9.6595650962E-09
    9.3794824604E-09    9.1074237196E-09    8.8431619604E-09    8.5864766040E-09
    8.3371532310E-09    8.0949834115E-09    7.8597645397E-09    7.6312996731E-09
    7.4093973763E-09    7.1938715684E-09    6.9845413752E-09    6.7812309854E-09
    6.5837695106E-09    6.3919908491E-09    6.2057335533E-09    6.0248407011E-09
    5.8491597709E-09    5.6785425190E-09    5.5128448621E-09    5.3519267613E-09
    5.1956521103E-09    5.0438886265E-09    4.8965077448E-09    4.7533845145E-09
    4.6143974993E-09    4.4794286793E-09    4.3483633567E-09    4.2210900629E-09
    4.0975004696E-09    3.9774893007E-09    3.8609542482E-09    3.7477958891E-09
    3.6379176054E-09    3.5312255061E-09    3.4276283512E-09    3.3270374780E-09
    3.2293667290E-09    3.1345323825E-09    3.0424530844E-09    2.9530497824E-09
    2.8662456616E-09    2.7819660823E-09    2.7001385188E-09    2.6206925011E-09
    2.5435595568E-09    2.4686731556E-09    2.3959686550E-09    2.3253832473E-09
    2.2568559084E-09    2.1903273482E-09    2.1257399612E-09    2.0630377802E-09
    2.0021664299E-09    1.9430730823E-09    1.8857064136E-09    1.8300165615E-09
    1.7759550845E-09    1.7234749222E-09    1.6725303560E-09    1.6230769717E-09
    1.5750716227E-09    1.5284723946E-09    1.4832385700E-09    1.4393305955E-09
    1.3967100482E-09    1.3553396044E-09    1.3151830082E-09    1.2762050420E-09
    1.2383714962E-09    1.2016491418E-09    1.1660057020E-09    1.1314098258E-09
    1.0978310611E-09    1.0652398303E-09    1.0336074048E-09    1.0029058810E-09
    9.7310815741E-10    9.4418791156E-10    9.1611957798E-10    8.8887832682E-10
    8.6244004292E-10    8.3678130555E-10    8.1187936869E-10    7.8771214188E-10
    7.6425817157E-10    7.4149662304E-10    7.1940726277E-10    6.9797044137E-10
    6.7716707690E-10    6.5697863877E-10    6.3738713199E-10    6.1837508192E-10
    5.9992551942E-10    5.8202196643E-10    5.6464842197E-10    5.4778934848E-10
    5.3142965863E-10    5.1555470240E-10    5.0015025461E-10    4.8520250276E-10
    4.7069803522E-10    4.5662382972E-10    4.4296724224E-10    4.2971599616E-10
    4.1685817171E-10    4.0438219575E-10    3.9227683179E-10    3.8053117037E-10
    3.6913461966E-10    3.5807689628E-10    3.4734801651E-10    3.3693828761E-10
    3.2683829948E-10    3.1703891651E-10    3.0753126968E-10    2.9830674888E-10
    2.8935699543E-10    2.8067389488E-10    2.7224956989E-10    2.6407637345E-10
    2.5614688219E-10    2.4845388995E-10    2.4099040147E-10    2.3374962632E-10
    2.2672497297E-10    2.1991004302E-10    2.1329862562E-10    2.0688469203E-10
    2.0066239038E-10    1.9462604047E-10    1.8877012888E-10    1.8308930406E-10
    1.7757837167E-10    1.7223228999E-10    1.6704616554E-10    1.6201524870E-10
    1.5713492958E-10    1.5240073393E-10    1.4780831920E-10    1.4335347074E-10
    1.3903209801E-10    1.3484023102E-10    1.3077401679E-10    1.2682971596E-10
    1.2300369945E-10    1.1929244526E-10    1.1569253534E-10    1.1220065256E-10
    1.0881357776E-10    1.0552818688E-10    1.0234144817E-10    9.9250419544E-11
    9.6252245881E-11    9.3344156536E-11    9.0523462846E-11    8.7787555729E-11
    8.5133903356E-11    8.2560048885E-11    8.0063608263E-11    7.7642268090E-11
    7.5293783548E-11    7.3015976385E-11    7.0806732963E-11    6.8664002358E-11
    6.6585794519E-11    6.4570178476E-11    6.2615280607E-11    6.0719282947E-11
    5.8880421549E-11    5.7096984902E-11    5.5367312376E-11    5.3689792733E-11
    5.2062862663E-11    5.0485005378E-11    4.8954749236E-11    4.7470666413E-11
    4.6031371604E-11    4.4635520776E-11    4.3281809942E-11    4.1968973981E-11
    4.0695785493E-11    3.9461053678E-11    3.8263623258E-11    3.7102373425E-11
    3.5976216821E-11    3.4884098551E-11    3.3824995215E-11    3.2797913985E-11
    3.1801891689E-11    3.0835993943E-11    2.9899314286E-11    2.8990973363E-11
    2.8110118115E-11    2.7255921000E-11    2.6427579234E-11    2.5624314061E-11
    2.4845370035E-11    2.4090014328E-11    2.3357536061E-11    2.2647245648E-11
    2.1958474165E-11    2.1290572736E-11    2.0642911934E-11    2.0014881206E-11
    1.9405888309E-11    1.8815358764E-11    1.8242735329E-11    1.7687477485E-11
    1.7149060937E-11    1.6626977131E-11    1.6120732784E-11    1.5629849431E-11
    1.5153862980E-11    1.4692323283E-11    1.4244793725E-11    1.3810850812E-11
    1.3390083786E-11    1.2982094241E-11    1.2586495756E-11    1.2202913536E-11
    1.1830984063E-11    1.1470354760E-11    1.1120683667E-11    1.0781639116E-11
    1.0452899432E-11    1.0134152626E-11    9.8250961096E-12    9.5254364134E-12
    9.2348889116E-12    8.9531775588E-12    8.6800346326E-12    8.4152004838E-12
    8.1584232948E-12    7.9094588444E-12    7.6680702805E-12    7.4340278985E-12
    7.2071089269E-12    6.9870973196E-12    6.7737835539E-12    6.5669644342E-12
    6.3664429026E-12    6.1720278542E-12    5.9835339583E-12    5.8007814848E-12
    5.6235961362E-12    5.4518088839E-12    5.2852558097E-12    5.1237779526E-12
    4.9672211593E-12    4.8154359397E-12    4.6682773261E-12    4.5256047380E-12
    4.3872818492E-12    4.2531764600E-12    4.1231603729E-12    3.9971092720E-12
    3.8749026061E-12    3.7564234753E-12    3.6415585208E-12    3.5301978182E-12
    3.4222347739E-12    3.3175660250E-12    3.2160913411E-12    3.1177135307E-12
    3.0223383486E-12    2.9298744079E-12    2.8402330929E-12    2.7533284758E-12
    2.6690772358E-12    2.5873985798E-12    2.5082141663E-12    2.4314480316E-12
    2.3570265175E-12    2.2848782019E-12    2.2149338312E-12    2.1471262544E-12
    2.0813903601E-12    2.0176630144E-12    1.9558830012E-12    1.8959909641E-12
    1.8379293503E-12    1.7816423558E-12    1.7270758728E-12    1.6741774380E-12
    1.6228961828E-12    1.5731827856E-12    1.5249894241E-12    1.4782697305E-12
    1.4329787471E-12    1.3890728839E-12    1.3465098768E-12    1.3052487475E-12
    1.2652497649E-12    1.2264744066E-12    1.1888853230E-12    1.1524463012E-12
    1.1171222305E-12    1.0828790695E-12    1.0496838131E-12    1.0175044613E-12
    9.8630998869E-13    9.5607031489E-13    9.2675627574E-13    8.9833959559E-13
    8.7079286031E-13    8.4408949108E-13    8.1820371907E-13    7.9311056083E-13
    7.6878579440E-13    7.4520593619E-13    7.2234821856E-13    7.0019056802E-13
    6.7871158418E-13    6.5789051927E-13    6.3770725826E-13    6.1814229969E-13
    5.9917673697E-13    5.8079224027E-13    5.6297103904E-13    5.4569590493E-13
    5.2895013533E-13    5.1271753736E-13    4.9698241237E-13    4.8172954090E-13
    4.6694416806E-13    4.5261198943E-13    4.3871913735E-13    4.2525216755E-13
    4.1219804635E-13    3.9954413810E-13    3.8727819307E-13    3.7538833570E-13
    3.6386305318E-13    3.5269118442E-13    3.4186190935E-13    3.3136473847E-13
    3.2118950283E-13    3.1132634422E-13    3.0176570574E-13    2.9249832258E-13
    2.8351521312E-13    2.7480767031E-13    2.6636725327E-13    2.5818577921E-13
    2.5025531553E-13    2.4256817218E-13    2.3511689429E-13    2.2789425499E-13
    2.2089324842E-13    2.1410708302E-13    2.0752917499E-13    2.0115314193E-13
    1.9497279669E-13    1.8898214143E-13    1.8317536185E-13    1.7754682153E-13
    1.7209105656E-13    1.6680277024E-13    1.6167682799E-13    1.5670825238E-13
    1.5189221835E-13    1.4722404854E-13    1.4269920877E-13    1.3831330370E-13
    1.3406207256E-13    1.2994138504E-13    1.2594723731E-13    1.2207574816E-13
    1.1832315522E-13    1.1468581137E-13    1.1116018121E-13    1.0774283761E-13
    1.0443045844E-13    1.0121982333E-13    9.8107810575E-14    9.5091394120E-14
    9.2167640621E-14    8.9333706618E-14    8.6586835788E-14    8.3924356273E-14
    8.1343678099E-14    7.8842290672E-14    7.6417760350E-14    7.4067728082E-14
    7.1789907134E-14    6.9582080872E-14    6.7442100615E-14    6.5367883557E-14
    6.3357410754E-14    6.1408725162E-14    5.9519929747E-14    5.7689185648E-14
    5.5914710394E-14    5.4194776176E-14    5.2527708180E-14    5.0911882957E-14
    4.9345726852E-14    4.7827714480E-14    4.6356367249E-14    4.4930251923E-14
    4.3547979234E-14    4.2208202540E-14    4.0909616510E-14    3.9650955867E-14
    3.8430994154E-14    3.7248542551E-14    3.6102448716E-14    3.4991595670E-14
    3.3914900714E-14    3.2871314377E-14    3.1859819397E-14    3.0879429734E-14
    2.9929189617E-14    2.9008172611E-14    2.8115480716E-14    2.7250243505E-14
    2.6411617269E-14    2.5598784201E-14    2.4810951603E-14    2.4047351115E-14
    2.3307237968E-14    2.2589890263E-14    2.1894608267E-14    2.1220713734E-14
    2.0567549246E-14    1.9934477576E-14    1.9320881064E-14    1.8726161022E-14
    1.8149737150E-14    1.7591046969E-14    1.7049545281E-14    1.6524703630E-14
    1.6016009797E-14    1.5522967296E-14    1.5045094892E-14    1.4581926137E-14
    1.4133008910E-14    1.3697904984E-14    1.3276189592E-14    1.2867451021E-14
    1.2471290208E-14    1.2087320353E-14    1.1715166538E-14    1.1354465370E-14
    1.1004864621E-14    1.0666022887E-14    1.0337609258E-14    1.0019302994E-14
    9.7107932088E-15    9.4117785753E-15    9.1219670267E-15    8.8410754732E-15
    8.5688295264E-15    8.3049632326E-15    8.0492188133E-15    7.8013464144E-15
    7.5611038620E-15    7.3282564279E-15    7.1025766000E-15    6.8838438605E-15
    6.6718444715E-15    6.4663712671E-15    6.2672234504E-15    6.0742063985E-15
    5.8871314733E-15    5.7058158368E-15    5.5300822731E-15    5.3597590160E-15
    5.1946795814E-15    5.0346826049E-15    4.8796116843E-15    4.7293152276E-15
    4.5836463050E-15    4.4424625056E-15    4.3056257980E-15    4.1730023968E-15
    4.0444626313E-15    3.9198808192E-15    3.7991351440E-15    3.6821075365E-15
    3.5686835593E-15    3.4587522948E-15    3.3522062380E-15    3.2489411908E-15
    3.1488561607E-15    3.0518532617E-15    2.9578376199E-15    2.8667172798E-15
    2.7784031151E-15    2.6928087414E-15    2.6098504327E-15    2.5294470385E-15
    2.4515199054E-15    2.3759928001E-15    2.3027918352E-15    2.2318453966E-15
    2.1630840738E-15    2.0964405925E-15    2.0318497483E-15    1.9692483435E-15
    1.9085751252E-15    1.8497707254E-15    1.7927776033E-15    1.7375399889E-15
    1.6840038286E-15    1.6321167322E-15    1.5818279222E-15    1.5330881837E-15
    1.4858498167E-15    1.4400665893E-15    1.3956936926E-15    1.3526876969E-15
    1.3110065092E-15    1.2706093324E-15    1.2314566250E-15    1.1935100627E-15
    1.1567325011E-15    1.1210879391E-15    1.0865414836E-15    1.0530593161E-15
    1.0206086590E-15    9.8915774372E-16    9.5867577967E-16    9.2913292433E-16
    9.0050025388E-16    8.7274973495E-16    8.4585419721E-16    8.1978730699E-16
    7.9452354134E-16    7.7003816308E-16    7.4630719672E-16    7.2330740502E-16
    7.0101626620E-16    6.7941195191E-16    6.5847330594E-16    6.3817982359E-16
    6.1851163148E-16    5.9944946817E-16    5.8097466539E-16    5.6306912975E-16
    5.4571532499E-16    5.2889625483E-16    5.1259544648E-16    4.9679693440E-16
    4.8148524472E-16    4.6664538006E-16    4.5226280498E-16    4.3832343168E-16
   </PP_CHI.1>
   <PP_CHI.2
       type="real"
       size="1288"
       columns="4"
       index="2"
       occupation=" 6.000"
       pseudo_energy="   -0.6326074641E+01"
       label="3P"
       l="1" >
    5.0101416071E-11    7.4528485089E-04    2.9791792519E-03    6.6958091908E-03
    1.1885406099E-02    1.8534338938E-02    2.6625158936E-02    3.6136656803E-02
    4.7043932174E-02    5.9318475030E-02    7.2928258734E-02    8.7837844342E-02
    1.0400849575E-01    1.2139830523E-01    1.3996232882E-01    1.5965273116E-01
    1.8041893895E-01    2.0220780274E-01    2.2496376617E-01    2.4862904215E-01
    2.7314379521E-01    2.9844632942E-01    3.2447328101E-01    3.5115981519E-01
    3.7843982616E-01    4.0624613983E-01    4.3451071828E-01    4.6316486533E-01
    4.9213943251E-01    5.2136502455E-01    5.5077220379E-01    5.8029169271E-01
    6.0985457393E-01    6.3939248695E-01    6.6883782103E-01    6.9812390338E-01
    7.2718518239E-01    7.5595740487E-01    7.8437778711E-01    8.1238517903E-01
    8.3992022089E-01    8.6692549227E-01    8.9334565271E-01    9.1912757371E-01
    9.4422046165E-01    9.6857597144E-01    9.9214831050E-01    1.0148943328E+00
    1.0367736231E+00    1.0577485704E+00    1.0777844317E+00    1.0968493849E+00
    1.1149145715E+00    1.1319541283E+00    1.1479452094E+00    1.1628679975E+00
    1.1767057047E+00    1.1894445641E+00    1.2010738100E+00    1.2115856505E+00
    1.2209752289E+00    1.2292405767E+00    1.2363825586E+00    1.2424048074E+00
    1.2473136529E+00    1.2511180413E+00    1.2538294491E+00    1.2554617890E+00
    1.2560313105E+00    1.2555564945E+00    1.2540579424E+00    1.2515582612E+00
    1.2480819440E+00    1.2436552471E+00    1.2383060638E+00    1.2320637965E+00
    1.2249592259E+00    1.2170243794E+00    1.2082923988E+00    1.1987974072E+00
    1.1885743765E+00    1.1776589957E+00    1.1660875404E+00    1.1538967440E+00
    1.1411236712E+00    1.1278055941E+00    1.1139798719E+00    1.0996838333E+00
    1.0849546633E+00    1.0698292945E+00    1.0543443021E+00    1.0385358046E+00
    1.0224393691E+00    1.0060899222E+00    9.8952166632E-01    9.7276800152E-01
    9.5586145354E-01    9.3883360746E-01    9.2171504740E-01    9.0453530232E-01
    8.8732279780E-01    8.7010481382E-01    8.5290744850E-01    8.3575558776E-01
    8.1867288070E-01    8.0168172066E-01    7.8480323174E-01    7.6805726070E-01
    7.5146237392E-01    7.3503585938E-01    7.1879373317E-01    7.0275075068E-01
    6.8692042179E-01    6.7131503016E-01    6.5594565607E-01    6.4082220280E-01
    6.2595342604E-01    6.1134696619E-01    5.9700938323E-01    5.8294619396E-01
    5.6916191121E-01    5.5566008487E-01    5.4244334447E-01    5.2951344303E-01
    5.1687130197E-01    5.0451705681E-01    4.9245010352E-01    4.8066914514E-01
    4.6917223861E-01    4.5795684155E-01    4.4701985875E-01    4.3635768831E-01
    4.2596626709E-01    4.1584111554E-01    4.0597738158E-01    3.9636988353E-01
    3.8701315194E-01    3.7790147009E-01    3.6902891303E-01    3.6038938546E-01
    3.5197665819E-01    3.4378440320E-01    3.3580622712E-01    3.2803570313E-01
    3.2046640130E-01    3.1309191724E-01    3.0590589916E-01    2.9890207320E-01
    2.9207426721E-01    2.8541643268E-01    2.7892266518E-01    2.7258722304E-01
    2.6640454437E-01    2.6036926252E-01    2.5447621977E-01    2.4872047962E-01
    2.4309733727E-01    2.3760232868E-01    2.3223123802E-01    2.2698010363E-01
    2.2184522243E-01    2.1682315293E-01    2.1191071670E-01    2.0710499851E-01
    2.0240334497E-01    1.9780336191E-01    1.9330290923E-01    1.8890005040E-01
    1.8459291492E-01    1.8037965696E-01    1.7625845514E-01    1.7222751289E-01
    1.6828505862E-01    1.6442934596E-01    1.6065865384E-01    1.5697128665E-01
    1.5336557427E-01    1.4983987216E-01    1.4639256132E-01    1.4302204832E-01
    1.3972676520E-01    1.3650516947E-01    1.3335574398E-01    1.3027699683E-01
    1.2726746121E-01    1.2432569528E-01    1.2145028198E-01    1.1863982888E-01
    1.1589296793E-01    1.1320835530E-01    1.1058467109E-01    1.0802061915E-01
    1.0551492680E-01    1.0306634457E-01    1.0067364595E-01    9.8335627088E-02
    9.6051106525E-02    9.3818924909E-02    9.1637944702E-02    8.9507049882E-02
    8.7425145656E-02    8.5391158156E-02    8.3404034149E-02    8.1462740735E-02
    7.9566265057E-02    7.7713614005E-02    7.5903813924E-02    7.4135910328E-02
    7.2408967613E-02    7.0722068772E-02    6.9074315120E-02    6.7464826011E-02
    6.5892738572E-02    6.4357207428E-02    6.2857404438E-02    6.1392518428E-02
    5.9961754935E-02    5.8564335946E-02    5.7199499643E-02    5.5866500149E-02
    5.4564607280E-02    5.3293106293E-02    5.2051297640E-02    5.0838496724E-02
    4.9654033653E-02    4.8497252999E-02    4.7367513555E-02    4.6264188099E-02
    4.5186663150E-02    4.4134338735E-02    4.3106628148E-02    4.2102957718E-02
    4.1122766573E-02    4.0165506406E-02    3.9230641246E-02    3.8317647223E-02
    3.7426012341E-02    3.6555236249E-02    3.5704830018E-02    3.4874315910E-02
    3.4063227160E-02    3.3271107753E-02    3.2497512207E-02    3.1742005352E-02
    3.1004162119E-02    3.0283567328E-02    2.9579815473E-02    2.8892510522E-02
    2.8221265707E-02    2.7565703324E-02    2.6925454535E-02    2.6300159170E-02
    2.5689465536E-02    2.5093030225E-02    2.4510517929E-02    2.3941601253E-02
    2.3385960538E-02    2.2843283685E-02    2.2313265973E-02    2.1795609898E-02
    2.1290024999E-02    2.0796227695E-02    2.0313941125E-02    1.9842894991E-02
    1.9382825401E-02    1.8933474721E-02    1.8494591421E-02    1.8065929940E-02
    1.7647250534E-02    1.7238319144E-02    1.6838907257E-02    1.6448791779E-02
    1.6067754897E-02    1.5695583960E-02    1.5332071353E-02    1.4977014374E-02
    1.4630215120E-02    1.4291480369E-02    1.3960621471E-02    1.3637454233E-02
    1.3321798817E-02    1.3013479634E-02    1.2712325240E-02    1.2418168239E-02
    1.2130845185E-02    1.1850196486E-02    1.1576066314E-02    1.1308302513E-02
    1.1046756510E-02    1.0791283232E-02    1.0541741020E-02    1.0297991550E-02
    1.0059899747E-02    9.8273337147E-03    9.6001646558E-03    9.3782667977E-03
    9.1615173215E-03    8.9497962911E-03    8.7429865845E-03    8.5409738267E-03
    8.3436463245E-03    8.1508950025E-03    7.9626133408E-03    7.7786973145E-03
    7.5990453343E-03    7.4235581890E-03    7.2521389885E-03    7.0846931093E-03
    6.9211281408E-03    6.7613538328E-03    6.6052820441E-03    6.4528266934E-03
    6.3039037099E-03    6.1584309861E-03    6.0163283317E-03    5.8775174281E-03
    5.7419217843E-03    5.6094666940E-03    5.4800791934E-03    5.3536880205E-03
    5.2302235747E-03    5.1096178779E-03    4.9918045365E-03    4.8767187041E-03
    4.7642970451E-03    4.6544776993E-03    4.5472002473E-03    4.4424056769E-03
    4.3400363498E-03    4.2400359697E-03    4.1423495505E-03    4.0469233861E-03
    3.9537050204E-03    3.8626432174E-03    3.7736879337E-03    3.6867902897E-03
    3.6019025431E-03    3.5189780616E-03    3.4379712979E-03    3.3588377636E-03
    3.2815340046E-03    3.2060175775E-03    3.1322470253E-03    3.0601818549E-03
    2.9897825143E-03    2.9210103710E-03    2.8538276902E-03    2.7881976142E-03
    2.7240841415E-03    2.6614521076E-03    2.6002671648E-03    2.5404957634E-03
    2.4821051333E-03    2.4250632657E-03    2.3693388953E-03    2.3149014831E-03
    2.2617211996E-03    2.2097689080E-03    2.1590161484E-03    2.1094351217E-03
    2.0609986747E-03    2.0136802845E-03    1.9674540445E-03    1.9222946493E-03
    1.8781773814E-03    1.8350780974E-03    1.7929732141E-03    1.7518396961E-03
    1.7116550430E-03    1.6723972766E-03    1.6340449291E-03    1.5965770310E-03
    1.5599730996E-03    1.5242131280E-03    1.4892775734E-03    1.4551473470E-03
    1.4218038027E-03    1.3892287277E-03    1.3574043317E-03    1.3263132373E-03
    1.2959384707E-03    1.2662634517E-03    1.2372719852E-03    1.2089482521E-03
    1.1812768000E-03    1.1542425355E-03    1.1278307153E-03    1.1020269384E-03
    1.0768171378E-03    1.0521875731E-03    1.0281248226E-03    1.0046157761E-03
    9.8164762761E-04    9.5920786833E-04    9.3728427959E-04    9.1586492626E-04
    8.9493815011E-04    8.7449256336E-04    8.5451704242E-04    8.3500072177E-04
    8.1593298791E-04    7.9730347355E-04    7.7910205187E-04    7.6131883096E-04
    7.4394414830E-04    7.2696856552E-04    7.1038286311E-04    6.9417803539E-04
    6.7834528549E-04    6.6287602057E-04    6.4776184702E-04    6.3299456586E-04
    6.1856616819E-04    6.0446883081E-04    5.9069491190E-04    5.7723694677E-04
    5.6408764378E-04    5.5123988033E-04    5.3868669888E-04    5.2642130317E-04
    5.1443705444E-04    5.0272746779E-04    4.9128620860E-04    4.8010708902E-04
    4.6918406460E-04    4.5851123092E-04    4.4808282036E-04    4.3789319890E-04
    4.2793686306E-04    4.1820843681E-04    4.0870266865E-04    3.9941442871E-04
    3.9033870591E-04    3.8147060522E-04    3.7280534495E-04    3.6433825412E-04
    3.5606476990E-04    3.4798043507E-04    3.4008089563E-04    3.3236189830E-04
    3.2481928827E-04    3.1744900690E-04    3.1024708944E-04    3.0320966289E-04
    2.9633294385E-04    2.8961323647E-04    2.8304693037E-04    2.7663049869E-04
    2.7036049615E-04    2.6423355713E-04    2.5824639384E-04    2.5239579452E-04
    2.4667862166E-04    2.4109181028E-04    2.3563236625E-04    2.3029736463E-04
    2.2508394810E-04    2.1998932535E-04    2.1501076957E-04    2.1014561695E-04
    2.0539126521E-04    2.0074517219E-04    1.9620485444E-04    1.9176788584E-04
    1.8743189633E-04    1.8319457052E-04    1.7905364653E-04    1.7500691464E-04
    1.7105221615E-04    1.6718744219E-04    1.6341053253E-04    1.5971947448E-04
    1.5611230178E-04    1.5258709354E-04    1.4914197313E-04    1.4577510725E-04
    1.4248470483E-04    1.3926901610E-04    1.3612633165E-04    1.3305498142E-04
    1.3005333389E-04    1.2711979510E-04    1.2425280781E-04    1.2145085069E-04
    1.1871243740E-04    1.1603611587E-04    1.1342046745E-04    1.1086410613E-04
    1.0836567785E-04    1.0592385969E-04    1.0353735916E-04    1.0120491354E-04
    9.8925289137E-05    9.6697280651E-05    9.4519710495E-05    9.2391428163E-05
    9.0311309602E-05    8.8278256601E-05    8.6291196187E-05    8.4349080050E-05
    8.2450883966E-05    8.0595607240E-05    7.8782272167E-05    7.7009923492E-05
    7.5277627900E-05    7.3584473502E-05    7.1929569340E-05    7.0312044907E-05
    6.8731049673E-05    6.7185752619E-05    6.5675341792E-05    6.4199023861E-05
    6.2756023687E-05    6.1345583905E-05    5.9966964510E-05    5.8619442459E-05
    5.7302311277E-05    5.6014880676E-05    5.4756476181E-05    5.3526438765E-05
    5.2324124490E-05    5.1148904163E-05    5.0000162995E-05    4.8877300264E-05
    4.7779728995E-05    4.6706875644E-05    4.5658179783E-05    4.4633093801E-05
    4.3631082610E-05    4.2651623353E-05    4.1694205123E-05    4.0758328689E-05
    3.9843506224E-05    3.8949261047E-05    3.8075127362E-05    3.7220650008E-05
    3.6385384216E-05    3.5568895369E-05    3.4770758767E-05    3.3990559398E-05
    3.3227891720E-05    3.2482359437E-05    3.1753575289E-05    3.1041160847E-05
    3.0344746304E-05    2.9663970280E-05    2.8998479630E-05    2.8347929250E-05
    2.7711981897E-05    2.7090308005E-05    2.6482585510E-05    2.5888499678E-05
    2.5307742935E-05    2.4740014706E-05    2.4185021249E-05    2.3642475503E-05
    2.3112096933E-05    2.2593611378E-05    2.2086750910E-05    2.1591253685E-05
    2.1106863807E-05    2.0633331192E-05    2.0170411433E-05    1.9717865670E-05
    1.9275460464E-05    1.8842967672E-05    1.8420164325E-05    1.8006832513E-05
    1.7602759264E-05    1.7207736434E-05    1.6821560597E-05    1.6444032934E-05
    1.6074959131E-05    1.5714149276E-05    1.5361417753E-05    1.5016583150E-05
    1.4679468161E-05    1.4349899491E-05    1.4027707764E-05    1.3712727436E-05
    1.3404796705E-05    1.3103757426E-05    1.2809455030E-05    1.2521738437E-05
    1.2240459984E-05    1.1965475338E-05    1.1696643429E-05    1.1433826368E-05
    1.1176889380E-05    1.0925700731E-05    1.0680131657E-05    1.0440056298E-05
    1.0205351633E-05    9.9758974129E-06    9.7515760992E-06    9.5322728012E-06
    9.3178752163E-06    9.1082735711E-06    8.9033605636E-06    8.7030313071E-06
    8.5071832753E-06    8.3157162489E-06    8.1285322627E-06    7.9455355546E-06
    7.7666325159E-06    7.5917316416E-06    7.4207434835E-06    7.2535806029E-06
    7.0901575255E-06    6.9303906963E-06    6.7741984364E-06    6.6215009005E-06
    6.4722200352E-06    6.3262795384E-06    6.1836048197E-06    6.0441229616E-06
    5.9077626814E-06    5.7744542947E-06    5.6441296787E-06    5.5167222371E-06
    5.3921668657E-06    5.2703999183E-06    5.1513591742E-06    5.0349838055E-06
    4.9212143460E-06    4.8099926602E-06    4.7012619135E-06    4.5949665424E-06
    4.4910522265E-06    4.3894658596E-06    4.2901555230E-06    4.1930704584E-06
    4.0981610419E-06    4.0053787581E-06    3.9146761756E-06    3.8260069221E-06
    3.7393256611E-06    3.6545880680E-06    3.5717508076E-06    3.4907715119E-06
    3.4116087584E-06    3.3342220483E-06    3.2585717867E-06    3.1846192611E-06
    3.1123266227E-06    3.0416568662E-06    2.9725738113E-06    2.9050420839E-06
    2.8390270981E-06    2.7744950389E-06    2.7114128440E-06    2.6497481879E-06
    2.5894694648E-06    2.5305457725E-06    2.4729468970E-06    2.4166432968E-06
    2.3616060876E-06    2.3078070281E-06    2.2552185055E-06    2.2038135210E-06
    2.1535656766E-06    2.1044491614E-06    2.0564387384E-06    2.0095097320E-06
    1.9636380150E-06    1.9187999968E-06    1.8749726111E-06    1.8321333044E-06
    1.7902600243E-06    1.7493312086E-06    1.7093257743E-06    1.6702231066E-06
    1.6320030491E-06    1.5946458928E-06    1.5581323667E-06    1.5224436280E-06
    1.4875612522E-06    1.4534672243E-06    1.4201439289E-06    1.3875741424E-06
    1.3557410233E-06    1.3246281042E-06    1.2942192834E-06    1.2644988166E-06
    1.2354513092E-06    1.2070617085E-06    1.1793152958E-06    1.1521976793E-06
    1.1256947869E-06    1.0997928587E-06    1.0744784403E-06    1.0497383763E-06
    1.0255598031E-06    1.0019301429E-06    9.7883709705E-07    9.5626864010E-07
    9.3421301356E-07    9.1265872007E-07    8.9159451758E-07    8.7100941372E-07
    8.5089266025E-07    8.3123374765E-07    8.1202239982E-07    7.9324856896E-07
    7.7490243045E-07    7.5697437795E-07    7.3945501857E-07    7.2233516813E-07
    7.0560584652E-07    6.8925827324E-07    6.7328386295E-07    6.5767422115E-07
    6.4242113995E-07    6.2751659399E-07    6.1295273635E-07    5.9872189464E-07
    5.8481656710E-07    5.7122941891E-07    5.5795327838E-07    5.4498113347E-07
    5.3230612816E-07    5.1992155906E-07    5.0782087202E-07    4.9599765883E-07
    4.8444565401E-07    4.7315873163E-07    4.6213090224E-07    4.5135630988E-07
    4.4082922908E-07    4.3054406201E-07    4.2049533567E-07    4.1067769911E-07
    4.0108592073E-07    3.9171488567E-07    3.8255959321E-07    3.7361515425E-07
    3.6487678884E-07    3.5633982380E-07    3.4799969033E-07    3.3985192169E-07
    3.3189215099E-07    3.2411610895E-07    3.1651962176E-07    3.0909860897E-07
    3.0184908138E-07    2.9476713912E-07    2.8784896958E-07    2.8109084553E-07
    2.7448912323E-07    2.6804024055E-07    2.6174071523E-07    2.5558714304E-07
    2.4957619610E-07    2.4370462119E-07    2.3796923808E-07    2.3236693792E-07
    2.2689468166E-07    2.2154949852E-07    2.1632848445E-07    2.1122880069E-07
    2.0624767229E-07    2.0138238670E-07    1.9663029242E-07    1.9198879760E-07
    1.8745536877E-07    1.8302752949E-07    1.7870285913E-07    1.7447899161E-07
    1.7035361420E-07    1.6632446632E-07    1.6238933842E-07    1.5854607079E-07
    1.5479255250E-07    1.5112672032E-07    1.4754655760E-07    1.4405009332E-07
    1.4063540100E-07    1.3730059776E-07    1.3404384333E-07    1.3086333910E-07
    1.2775732720E-07    1.2472408960E-07    1.2176194719E-07    1.1886925895E-07
    1.1604442111E-07    1.1328586625E-07    1.1059206258E-07    1.0796151308E-07
    1.0539275476E-07    1.0288435787E-07    1.0043492520E-07    9.8043091293E-08
    9.5707521809E-08    9.3426912769E-08    9.1199989905E-08    8.9025507989E-08
    8.6902250183E-08    8.4829027405E-08    8.2804677704E-08    8.0828065658E-08
    7.8898081775E-08    7.7013641913E-08    7.5173686711E-08    7.3377181035E-08
    7.1623113432E-08    6.9910495598E-08    6.8238361861E-08    6.6605768669E-08
    6.5011794096E-08    6.3455537351E-08    6.1936118308E-08    6.0452677037E-08
    5.9004373349E-08    5.7590386355E-08    5.6209914027E-08    5.4862172774E-08
    5.3546397028E-08    5.2261838833E-08    5.1007767452E-08    4.9783468974E-08
    4.8588245938E-08    4.7421416957E-08    4.6282316357E-08    4.5170293820E-08
    4.4084714036E-08    4.3024956366E-08    4.1990414506E-08    4.0980496165E-08
    3.9994622743E-08    3.9032229026E-08    3.8092762877E-08    3.7175684942E-08
    3.6280468357E-08    3.5406598468E-08    3.4553572549E-08    3.3720899533E-08
    3.2908099745E-08    3.2114704646E-08    3.1340256575E-08    3.0584308502E-08
    2.9846423786E-08    2.9126175941E-08    2.8423148398E-08    2.7736934283E-08
    2.7067136194E-08    2.6413365984E-08    2.5775244552E-08    2.5152401630E-08
    2.4544475588E-08    2.3951113230E-08    2.3371969605E-08    2.2806707816E-08
    2.2254998835E-08    2.1716521323E-08    2.1190961453E-08    2.0678012739E-08
    2.0177375864E-08    1.9688758519E-08    1.9211875237E-08    1.8746447243E-08
    1.8292202290E-08    1.7848874518E-08    1.7416204301E-08    1.6993938103E-08
    1.6581828343E-08    1.6179633251E-08    1.5787116738E-08    1.5404048262E-08
    1.5030202703E-08    1.4665360235E-08    1.4309306203E-08    1.3961831007E-08
    1.3622729980E-08    1.3291803277E-08    1.2968855763E-08    1.2653696904E-08
    1.2346140656E-08    1.2046005368E-08    1.1753113673E-08    1.1467292394E-08
    1.1188372443E-08    1.0916188728E-08    1.0650580057E-08    1.0391389052E-08
    1.0138462056E-08    9.8916490481E-09    9.6508035584E-09    9.4157825857E-09
    9.1864465158E-09    8.9626590430E-09    8.7442870924E-09    8.5312007449E-09
    8.3232731632E-09    8.1203805197E-09    7.9224019264E-09    7.7292193656E-09
    7.5407176232E-09    7.3567842227E-09    7.1773093613E-09    7.0021858471E-09
    6.8313090379E-09    6.6645767813E-09    6.5018893565E-09    6.3431494168E-09
    6.1882619344E-09    6.0371341454E-09    5.8896754967E-09    5.7457975942E-09
    5.6054141520E-09    5.4684409423E-09    5.3347957476E-09    5.2043983129E-09
    5.0771702998E-09    4.9530352407E-09    4.8319184955E-09    4.7137472079E-09
    4.5984502634E-09    4.4859582483E-09    4.3762034095E-09    4.2691196151E-09
    4.1646423165E-09    4.0627085102E-09    3.9632567022E-09    3.8662268713E-09
    3.7715604352E-09    3.6792002154E-09    3.5890904050E-09    3.5011765354E-09
    3.4154054448E-09    3.3317252472E-09    3.2500853025E-09    3.1704361863E-09
    3.0927296613E-09    3.0169186495E-09    2.9429572037E-09    2.8708004819E-09
    2.8004047197E-09    2.7317272059E-09    2.6647262562E-09    2.5993611901E-09
    2.5355923056E-09    2.4733808573E-09    2.4126890323E-09    2.3534799289E-09
    2.2957175345E-09    2.2393667045E-09    2.1843931414E-09    2.1307633748E-09
    2.0784447417E-09    2.0274053670E-09    1.9776141447E-09    1.9290407198E-09
    1.8816554699E-09    1.8354294881E-09    1.7903345658E-09    1.7463431757E-09
    1.7034284559E-09    1.6615641937E-09    1.6207248100E-09    1.5808853446E-09
    1.5420214406E-09    1.5041093308E-09    1.4671258228E-09    1.4310482856E-09
    1.3958546363E-09    1.3615233264E-09    1.3280333296E-09    1.2953641287E-09
    1.2634957038E-09    1.2324085201E-09    1.2020835164E-09    1.1725020935E-09
    1.1436461035E-09    1.1154978385E-09    1.0880400201E-09    1.0612557894E-09
    1.0351286965E-09    1.0096426909E-09    9.8478211173E-10    9.6053167851E-10
    9.3687648187E-10    9.1380197467E-10    8.9129396321E-10    8.6933859878E-10
    8.4792236928E-10    8.2703209112E-10    8.0665490131E-10    7.8677824968E-10
    7.6738989138E-10    7.4847787946E-10    7.3003055772E-10    7.1203655363E-10
    6.9448477153E-10    6.7736438589E-10    6.6066483483E-10    6.4437581370E-10
    6.2848726887E-10    6.1298939168E-10    5.9787261247E-10    5.8312759484E-10
    5.6874522997E-10    5.5471663113E-10    5.4103312828E-10    5.2768626284E-10
    5.1466778255E-10    5.0196963650E-10    4.8958397020E-10    4.7750312085E-10
    4.6571961271E-10    4.5422615251E-10    4.4301562506E-10    4.3208108892E-10
    4.2141577219E-10    4.1101306838E-10    4.0086653241E-10    3.9096987666E-10
    3.8131696718E-10    3.7190181995E-10    3.6271859722E-10    3.5376160396E-10
    3.4502528439E-10    3.3650421863E-10    3.2819311932E-10    3.2008682847E-10
    3.1218031429E-10    3.0446866808E-10    2.9694710129E-10    2.8961094257E-10
    2.8245563491E-10    2.7547673289E-10    2.6866989991E-10    2.6203090557E-10
    2.5555562309E-10    2.4924002678E-10    2.4308018955E-10    2.3707228055E-10
    2.3121256278E-10    2.2549739084E-10    2.1992320867E-10    2.1448654738E-10
    2.0918402314E-10    2.0401233507E-10    1.9896826323E-10    1.9404866667E-10
    1.8925048146E-10    1.8457071883E-10    1.8000646336E-10    1.7555487114E-10
    1.7121316805E-10    1.6697864806E-10    1.6284867154E-10    1.5882066368E-10
    1.5489211287E-10    1.5106056915E-10    1.4732364275E-10    1.4367900257E-10
    1.4012437476E-10    1.3665754133E-10    1.3327633878E-10    1.2997865675E-10
    1.2676243674E-10    1.2362567084E-10    1.2056640047E-10    1.1758271521E-10
    1.1467275157E-10    1.1183469191E-10    1.0906676323E-10    1.0636723616E-10
    1.0373442384E-10    1.0116668091E-10    9.8662402441E-11    9.6220023021E-11
    9.3838015725E-11    9.1514891195E-11    8.9249196720E-11    8.7039515333E-11
    8.4884464936E-11    8.2782697445E-11    8.0732897955E-11    7.8733783930E-11
    7.6784104403E-11    7.4882639205E-11    7.3028198210E-11    7.1219620597E-11
    6.9455774130E-11    6.7735554455E-11    6.6057884420E-11    6.4421713404E-11
    6.2826016666E-11    6.1269794709E-11    5.9752072663E-11    5.8271899677E-11
    5.6828348329E-11    5.5420514053E-11    5.4047514574E-11    5.2708489365E-11
    5.1402599109E-11    5.0129025176E-11    4.8886969121E-11    4.7675652183E-11
    4.6494314799E-11    4.5342216139E-11    4.4218633640E-11    4.3122862559E-11
    4.2054215532E-11    4.1012022152E-11    3.9995628546E-11    3.9004396972E-11
    3.8037705420E-11    3.7094947228E-11    3.6175530699E-11    3.5278878740E-11
    3.4404428496E-11    3.3551631002E-11    3.2719950843E-11    3.1908865817E-11
    3.1117866612E-11    3.0346456489E-11    2.9594150971E-11    2.8860477541E-11
    2.8144975347E-11    2.7447194918E-11    2.6766697881E-11    2.6103056685E-11
    2.5455854341E-11    2.4824684156E-11    2.4209149482E-11    2.3608863469E-11
    2.3023448820E-11    2.2452537560E-11    2.1895770804E-11    2.1352798533E-11
    2.0823279375E-11    2.0306880392E-11    1.9803276876E-11    1.9312152138E-11
    1.8833197319E-11    1.8366111189E-11    1.7910599965E-11    1.7466377125E-11
    1.7033163229E-11    1.6610685742E-11    1.6198678869E-11    1.5796883383E-11
    1.5405046467E-11    1.5022921554E-11    1.4650268174E-11    1.4286851800E-11
    1.3932443707E-11    1.3586820825E-11    1.3249765601E-11    1.2921065859E-11
    1.2600514674E-11    1.2287910237E-11    1.1983055730E-11    1.1685759206E-11
    1.1395833462E-11    1.1113095928E-11    1.0837368552E-11    1.0568477682E-11
    1.0306253968E-11    1.0050532245E-11    9.8011514381E-12    9.5579544555E-12
    9.3207880938E-12    9.0895029403E-12    8.8639532797E-12    8.6439970029E-12
    8.4294955175E-12    8.2203136616E-12    8.0163196181E-12    7.8173848330E-12
    7.6233839339E-12    7.4341946520E-12    7.2496977453E-12    7.0697769232E-12
    6.8943187743E-12    6.7232126951E-12    6.5563508199E-12    6.3936279540E-12
    6.2349415072E-12    6.0801914296E-12    5.9292801483E-12    5.7821125069E-12
    5.6385957054E-12    5.4986392415E-12    5.3621548546E-12    5.2290564698E-12
    5.0992601439E-12    4.9726840128E-12    4.8492482401E-12    4.7288749667E-12
    4.6114882623E-12    4.4970140772E-12    4.3853801962E-12    4.2765161930E-12
    4.1703533858E-12    4.0668247945E-12    3.9658650983E-12    3.8674105948E-12
    3.7713991599E-12    3.6777702087E-12    3.5864646575E-12    3.4974248863E-12
    3.4105947034E-12    3.3259193091E-12    3.2433452617E-12    3.1628204440E-12
    3.0842940304E-12    3.0077164545E-12    2.9330393788E-12    2.8602156634E-12
    2.7891993371E-12    2.7199455678E-12    2.6524106347E-12    2.5865519007E-12
    2.5223277857E-12    2.4596977400E-12    2.3986222193E-12    2.3390626594E-12
    2.2809814522E-12    2.2243419218E-12    2.1691083018E-12    2.1152457122E-12
    2.0627201379E-12    2.0114984071E-12    1.9615481704E-12    1.9128378807E-12
    1.8653367726E-12    1.8190148441E-12    1.7738428368E-12    1.7297922178E-12
    1.6868351618E-12    1.6449445335E-12    1.6040938705E-12    1.5642573666E-12
    1.5254098556E-12    1.4875267952E-12    1.4505842522E-12    1.4145588866E-12
    1.3794279373E-12    1.3451692078E-12    1.3117610521E-12    1.2791823610E-12
    1.2474125490E-12    1.2164315412E-12    1.1862197605E-12    1.1567581155E-12
    1.1280279883E-12    1.1000112230E-12    1.0726901138E-12    1.0460473944E-12
    1.0200662267E-12    9.9473019016E-13    9.7002327190E-13    9.4592985610E-13
    9.2243471440E-13    8.9952299624E-13    8.7718021950E-13    8.5539226137E-13
    8.3414534943E-13    8.1342605297E-13    7.9322127450E-13    7.7351824155E-13
    7.5430449851E-13    7.3556789887E-13    7.1729659748E-13    6.9947904313E-13
    6.8210397125E-13    6.6516039677E-13    6.4863760721E-13    6.3252515596E-13
    6.1681285561E-13    6.0149077157E-13    5.8654921580E-13    5.7197874067E-13
    5.5777013304E-13    5.4391440837E-13    5.3040280513E-13    5.1722677924E-13
    5.0437799866E-13    4.9184833812E-13    4.7962987406E-13    4.6771487954E-13
    4.5609581943E-13    4.4476534559E-13    4.3371629230E-13    4.2294167169E-13
   </PP_CHI.2>
   <PP_CHI.3
       type="real"
       size="1288"
       columns="4"
       index="3"
       occupation="10.000"
       pseudo_energy="   -0.7687477755E+00"
       label="3D"
       l="2" >
    1.5575729075E-11    8.2525398086E-06    6.5979986844E-05    2.2245577176E-04
    5.2655121871E-04    1.0265366050E-03    1.7698847451E-03    2.8030779221E-03
    4.1714189746E-03    5.9188473270E-03    8.0877607276E-03    1.0718843436E-02
    1.3850901564E-02    1.7520706254E-02    2.1762845324E-02    2.6609583988E-02
    3.2090735212E-02    3.8233540211E-02    4.5062559568E-02    5.2599575388E-02
    6.0863504857E-02    6.9870325535E-02    7.9633012632E-02    9.0161488499E-02
    1.0146258448E-01    1.1354001524E-01    1.2639436557E-01    1.4002308980E-01
    1.5442052354E-01    1.6957790782E-01    1.8548342545E-01    2.0212224922E-01
    2.1947660185E-01    2.3752582732E-01    2.5624647314E-01    2.7561238323E-01
    2.9559480098E-01    3.1616248185E-01    3.3728181519E-01    3.5891695455E-01
    3.8102995590E-01    4.0358092322E-01    4.2652816075E-01    4.4982833116E-01
    4.7343661909E-01    4.9730689921E-01    5.2139190811E-01    5.4564341935E-01
    5.7001242082E-01    5.9444929373E-01    6.1890399250E-01    6.4332622474E-01
    6.6766563061E-01    6.9187196086E-01    7.1589525287E-01    7.3968600382E-01
    7.6319534055E-01    7.8637518529E-01    8.0917841666E-01    8.3155902541E-01
    8.5347226419E-01    8.7487479095E-01    8.9572480536E-01    9.1598217784E-01
    9.3560857071E-01    9.5456755111E-01    9.7282469529E-01    9.9034768402E-01
    1.0071063888E+00    1.0230729485E+00    1.0382218368E+00    1.0525299194E+00
    1.0659765017E+00    1.0785433665E+00    1.0902148016E+00    1.1009776180E+00
    1.1108211580E+00    1.1197372935E+00    1.1277204148E+00    1.1347674107E+00
    1.1408776386E+00    1.1460528864E+00    1.1502973259E+00    1.1536174575E+00
    1.1560220477E+00    1.1575220592E+00    1.1581305736E+00    1.1578627080E+00
    1.1567355251E+00    1.1547679386E+00    1.1519806127E+00    1.1483958573E+00
    1.1440375196E+00    1.1389308719E+00    1.1331024967E+00    1.1265801689E+00
    1.1193927372E+00    1.1115700032E+00    1.1031426007E+00    1.0941418737E+00
    1.0845997563E+00    1.0745486516E+00    1.0640213136E+00    1.0530507297E+00
    1.0416700061E+00    1.0299122559E+00    1.0178104900E+00    1.0053975117E+00
    9.9270581513E-01    9.7976748783E-01    9.6661411806E-01    9.5327670657E-01
    9.3978558362E-01    9.2617033112E-01    9.1245971028E-01    8.9868159479E-01
    8.8486290970E-01    8.7102957610E-01    8.5720646166E-01    8.4341733701E-01
    8.2968483803E-01    8.1603043395E-01    8.0247440135E-01    7.8903580372E-01
    7.7573247677E-01    7.6258101916E-01    7.4959678853E-01    7.3679390270E-01
    7.2418524586E-01    7.1178247936E-01    6.9959605715E-01    6.8763524532E-01
    6.7590814572E-01    6.6442172326E-01    6.5318183665E-01    6.4219327227E-01
    6.3145978096E-01    6.2098411730E-01    6.1076808100E-01    6.0081256048E-01
    5.9111757810E-01    5.8168233682E-01    5.7250526798E-01    5.6358408000E-01
    5.5491580759E-01    5.4649686135E-01    5.3832307746E-01    5.3038976724E-01
    5.2269176632E-01    5.1522348331E-01    5.0797894761E-01    5.0095185643E-01
    4.9413562061E-01    4.8752340921E-01    4.8110819278E-01    4.7488278508E-01
    4.6883988329E-01    4.6297210643E-01    4.5727203216E-01    4.5173223170E-01
    4.4634530293E-01    4.4110390163E-01    4.3600077085E-01    4.3102876833E-01
    4.2618089216E-01    4.2145030442E-01    4.1683035316E-01    4.1231459245E-01
    4.0789680077E-01    4.0357099765E-01    3.9933145869E-01    3.9517272901E-01
    3.9108963514E-01    3.8707729554E-01    3.8313112966E-01    3.7924686571E-01
    3.7542054721E-01    3.7164853837E-01    3.6792752829E-01    3.6425453418E-01
    3.6062690356E-01    3.5704231548E-01    3.5349878093E-01    3.4999464229E-01
    3.4652857208E-01    3.4309957078E-01    3.3970696174E-01    3.3635031665E-01
    3.3302926220E-01    3.2974342750E-01    3.2649244513E-01    3.2327595062E-01
    3.2009358240E-01    3.1694498180E-01    3.1382979306E-01    3.1074766329E-01
    3.0769824246E-01    3.0468118338E-01    3.0169614163E-01    2.9874277557E-01
    2.9582074629E-01    2.9292971759E-01    2.9006935591E-01    2.8723933033E-01
    2.8443931249E-01    2.8166897664E-01    2.7892799951E-01    2.7621606036E-01
    2.7353284090E-01    2.7087802531E-01    2.6825130021E-01    2.6565235462E-01
    2.6308087999E-01    2.6053657016E-01    2.5801912138E-01    2.5552823232E-01
    2.5306360402E-01    2.5062493997E-01    2.4821194609E-01    2.4582433072E-01
    2.4346180469E-01    2.4112408129E-01    2.3881087633E-01    2.3652190814E-01
    2.3425689761E-01    2.3201556819E-01    2.2979764594E-01    2.2760285957E-01
    2.2543094040E-01    2.2328162247E-01    2.2115464250E-01    2.1904973993E-01
    2.1696665695E-01    2.1490513860E-01    2.1286493256E-01    2.1084578935E-01
    2.0884746234E-01    2.0686970768E-01    2.0491228439E-01    2.0297495431E-01
    2.0105748213E-01    1.9915963538E-01    1.9728118443E-01    1.9542190250E-01
    1.9358156564E-01    1.9175995271E-01    1.8995684542E-01    1.8817202826E-01
    1.8640528853E-01    1.8465641627E-01    1.8292520433E-01    1.8121144824E-01
    1.7951494629E-01    1.7783549943E-01    1.7617291131E-01    1.7452698820E-01
    1.7289753899E-01    1.7128437517E-01    1.6968731077E-01    1.6810616237E-01
    1.6654074903E-01    1.6499089231E-01    1.6345641617E-01    1.6193714700E-01
    1.6043291356E-01    1.5894354693E-01    1.5746888051E-01    1.5600874999E-01
    1.5456299328E-01    1.5313145049E-01    1.5171396392E-01    1.5031037801E-01
    1.4892053930E-01    1.4754429641E-01    1.4618149999E-01    1.4483200270E-01
    1.4349565920E-01    1.4217232606E-01    1.4086186179E-01    1.3956412677E-01
    1.3827898323E-01    1.3700629522E-01    1.3574592859E-01    1.3449775094E-01
    1.3326163159E-01    1.3203744160E-01    1.3082505366E-01    1.2962434214E-01
    1.2843518302E-01    1.2725745385E-01    1.2609103379E-01    1.2493580349E-01
    1.2379164515E-01    1.2265844245E-01    1.2153608052E-01    1.2042444596E-01
    1.1932342675E-01    1.1823291231E-01    1.1715279338E-01    1.1608296209E-01
    1.1502331187E-01    1.1397373748E-01    1.1293413495E-01    1.1190440158E-01
    1.1088443590E-01    1.0987413768E-01    1.0887340790E-01    1.0788214871E-01
    1.0690026344E-01    1.0592765657E-01    1.0496423370E-01    1.0400990156E-01
    1.0306456797E-01    1.0212814183E-01    1.0120053312E-01    1.0028165283E-01
    9.9371413032E-02    9.8469726783E-02    9.7576508153E-02    9.6691672200E-02
    9.5815134955E-02    9.4946813408E-02    9.4086625492E-02    9.3234490075E-02
    9.2390326943E-02    9.1554056784E-02    9.0725601182E-02    8.9904882600E-02
    8.9091824367E-02    8.8286350668E-02    8.7488386532E-02    8.6697857820E-02
    8.5914691211E-02    8.5138814197E-02    8.4370155064E-02    8.3608642888E-02
    8.2854207520E-02    8.2106779580E-02    8.1366290440E-02    8.0632672221E-02
    7.9905857779E-02    7.9185780695E-02    7.8472375270E-02    7.7765576510E-02
    7.7065320121E-02    7.6371542495E-02    7.5684180709E-02    7.5003172508E-02
    7.4328456303E-02    7.3659971156E-02    7.2997656778E-02    7.2341453519E-02
    7.1691302356E-02    7.1047144892E-02    7.0408923341E-02    6.9776580527E-02
    6.9150059872E-02    6.8529305389E-02    6.7914261677E-02    6.7304873913E-02
    6.6701087844E-02    6.6102849781E-02    6.5510106591E-02    6.4922805692E-02
    6.4340895044E-02    6.3764323147E-02    6.3193039028E-02    6.2626992241E-02
    6.2066132856E-02    6.1510411457E-02    6.0959779132E-02    6.0414187470E-02
    5.9873588554E-02    5.9337934955E-02    5.8807179727E-02    5.8281276401E-02
    5.7760178978E-02    5.7243841929E-02    5.6732220180E-02    5.6225269118E-02
    5.5722944576E-02    5.5225202835E-02    5.4732000614E-02    5.4243295068E-02
    5.3759043782E-02    5.3279204765E-02    5.2803736449E-02    5.2332597679E-02
    5.1865747712E-02    5.1403146212E-02    5.0944753244E-02    5.0490529271E-02
    5.0040435149E-02    4.9594432122E-02    4.9152481820E-02    4.8714546250E-02
    4.8280587798E-02    4.7850569221E-02    4.7424453642E-02    4.7002204550E-02
    4.6583785792E-02    4.6169161572E-02    4.5758296445E-02    4.5351155314E-02
    4.4947703428E-02    4.4547906375E-02    4.4151730081E-02    4.3759140804E-02
    4.3370105132E-02    4.2984589981E-02    4.2602562588E-02    4.2223990509E-02
    4.1848841618E-02    4.1477084098E-02    4.1108686445E-02    4.0743617458E-02
    4.0381846241E-02    4.0023342195E-02    3.9668075020E-02    3.9316014706E-02
    3.8967131536E-02    3.8621396080E-02    3.8278779189E-02    3.7939251998E-02
    3.7602785919E-02    3.7269352641E-02    3.6938924122E-02    3.6611472592E-02
    3.6286970548E-02    3.5965390750E-02    3.5646706219E-02    3.5330890236E-02
    3.5017916336E-02    3.4707758308E-02    3.4400390194E-02    3.4095786280E-02
    3.3793921100E-02    3.3494769432E-02    3.3198306292E-02    3.2904506936E-02
    3.2613346854E-02    3.2324801771E-02    3.2038847643E-02    3.1755460652E-02
    3.1474617210E-02    3.1196293950E-02    3.0920467727E-02    3.0647115618E-02
    3.0376214914E-02    3.0107743123E-02    2.9841677966E-02    2.9577997373E-02
    2.9316679485E-02    2.9057702648E-02    2.8801045413E-02    2.8546686534E-02
    2.8294604964E-02    2.8044779855E-02    2.7797190557E-02    2.7551816612E-02
    2.7308637757E-02    2.7067633918E-02    2.6828785212E-02    2.6592071938E-02
    2.6357474587E-02    2.6124973827E-02    2.5894550512E-02    2.5666185672E-02
    2.5439860518E-02    2.5215556436E-02    2.4993254985E-02    2.4772937899E-02
    2.4554587082E-02    2.4338184607E-02    2.4123712715E-02    2.3911153812E-02
    2.3700490472E-02    2.3491705428E-02    2.3284781576E-02    2.3079701970E-02
    2.2876449825E-02    2.2675008511E-02    2.2475361553E-02    2.2277492629E-02
    2.2081385570E-02    2.1887024359E-02    2.1694393124E-02    2.1503476146E-02
    2.1314257848E-02    2.1126722800E-02    2.0940855716E-02    2.0756641450E-02
    2.0574064999E-02    2.0393111497E-02    2.0213766219E-02    2.0036014575E-02
    1.9859842110E-02    1.9685234505E-02    1.9512177571E-02    1.9340657254E-02
    1.9170659628E-02    1.9002170897E-02    1.8835177392E-02    1.8669665572E-02
    1.8505622021E-02    1.8343033446E-02    1.8181886679E-02    1.8022168673E-02
    1.7863866501E-02    1.7706967357E-02    1.7551458553E-02    1.7397327518E-02
    1.7244561797E-02    1.7093149052E-02    1.6943077056E-02    1.6794333697E-02
    1.6646906976E-02    1.6500785001E-02    1.6355955995E-02    1.6212408285E-02
    1.6070130308E-02    1.5929110608E-02    1.5789337835E-02    1.5650800741E-02
    1.5513488186E-02    1.5377389129E-02    1.5242492632E-02    1.5108787860E-02
    1.4976264075E-02    1.4844910639E-02    1.4714717012E-02    1.4585672753E-02
    1.4457767513E-02    1.4330991043E-02    1.4205333185E-02    1.4080783876E-02
    1.3957333146E-02    1.3834971116E-02    1.3713687999E-02    1.3593474096E-02
    1.3474319800E-02    1.3356215590E-02    1.3239152035E-02    1.3123119788E-02
    1.3008109591E-02    1.2894112268E-02    1.2781118729E-02    1.2669119969E-02
    1.2558107064E-02    1.2448071172E-02    1.2339003533E-02    1.2230895468E-02
    1.2123738375E-02    1.2017523735E-02    1.1912243105E-02    1.1807888119E-02
    1.1704450490E-02    1.1601922005E-02    1.1500294528E-02    1.1399559997E-02
    1.1299710424E-02    1.1200737894E-02    1.1102634566E-02    1.1005392669E-02
    1.0909004506E-02    1.0813462448E-02    1.0718758937E-02    1.0624886484E-02
    1.0531837671E-02    1.0439605144E-02    1.0348181620E-02    1.0257559881E-02
    1.0167732775E-02    1.0078693217E-02    9.9904341866E-03    9.9029487262E-03
    9.8162299435E-03    9.7302710089E-03    9.6450651553E-03    9.5606056779E-03
    9.4768859331E-03    9.3938993380E-03    9.3116393703E-03    9.2300995673E-03
    9.1492735255E-03    9.0691548998E-03    8.9897374035E-03    8.9110148073E-03
    8.8329809388E-03    8.7556296823E-03    8.6789549777E-03    8.6029508208E-03
    8.5276112618E-03    8.4529304057E-03    8.3789024112E-03    8.3055214903E-03
    8.2327819082E-03    8.1606779822E-03    8.0892040816E-03    8.0183546272E-03
    7.9481240907E-03    7.8785069943E-03    7.8094979101E-03    7.7410914599E-03
    7.6732823145E-03    7.6060651932E-03    7.5394348637E-03    7.4733861412E-03
    7.4079138883E-03    7.3430130143E-03    7.2786784751E-03    7.2149052724E-03
    7.1516884535E-03    7.0890231106E-03    7.0269043809E-03    6.9653274457E-03
    6.9042875300E-03    6.8437799026E-03    6.7837998751E-03    6.7243428016E-03
    6.6654040787E-03    6.6069791448E-03    6.5490634796E-03    6.4916526038E-03
    6.4347420791E-03    6.3783275072E-03    6.3224045298E-03    6.2669688282E-03
    6.2120161227E-03    6.1575421725E-03    6.1035427754E-03    6.0500137670E-03
    5.9969510208E-03    5.9443504475E-03    5.8922079950E-03    5.8405196477E-03
    5.7892814265E-03    5.7384893881E-03    5.6881396250E-03    5.6382282649E-03
    5.5887514705E-03    5.5397054391E-03    5.4910864024E-03    5.4428906261E-03
    5.3951144095E-03    5.3477540854E-03    5.3008060194E-03    5.2542666101E-03
    5.2081322884E-03    5.1623995174E-03    5.1170647918E-03    5.0721246381E-03
    5.0275756139E-03    4.9834143077E-03    4.9396373387E-03    4.8962413564E-03
    4.8532230404E-03    4.8105791001E-03    4.7683062742E-03    4.7264013310E-03
    4.6848610675E-03    4.6436823093E-03    4.6028619106E-03    4.5623967536E-03
    4.5222837485E-03    4.4825198329E-03    4.4431019721E-03    4.4040271581E-03
    4.3652924099E-03    4.3268947732E-03    4.2888313199E-03    4.2510991479E-03
    4.2136953812E-03    4.1766171692E-03    4.1398616866E-03    4.1034261335E-03
    4.0673077346E-03    4.0315037393E-03    3.9960114216E-03    3.9608280795E-03
    3.9259510349E-03    3.8913776337E-03    3.8571052450E-03    3.8231312615E-03
    3.7894530987E-03    3.7560681951E-03    3.7229740118E-03    3.6901680323E-03
    3.6576477624E-03    3.6254107299E-03    3.5934544842E-03    3.5617765967E-03
    3.5303746597E-03    3.4992462871E-03    3.4683891137E-03    3.4378007949E-03
    3.4074790070E-03    3.3774214465E-03    3.3476258302E-03    3.3180898949E-03
    3.2888113974E-03    3.2597881140E-03    3.2310178404E-03    3.2024983920E-03
    3.1742276028E-03    3.1462033260E-03    3.1184234337E-03    3.0908858165E-03
    3.0635883831E-03    3.0365290609E-03    3.0097057953E-03    2.9831165493E-03
    2.9567593039E-03    2.9306320577E-03    2.9047328267E-03    2.8790596440E-03
    2.8536105601E-03    2.8283836421E-03    2.8033769741E-03    2.7785886568E-03
    2.7540168073E-03    2.7296595592E-03    2.7055150622E-03    2.6815814818E-03
    2.6578569998E-03    2.6343398135E-03    2.6110281357E-03    2.5879201948E-03
    2.5650142345E-03    2.5423085138E-03    2.5198013063E-03    2.4974909011E-03
    2.4753756015E-03    2.4534537258E-03    2.4317236066E-03    2.4101835910E-03
    2.3888320402E-03    2.3676673297E-03    2.3466878486E-03    2.3258920004E-03
    2.3052782018E-03    2.2848448834E-03    2.2645904892E-03    2.2445134766E-03
    2.2246123161E-03    2.2048854916E-03    2.1853314997E-03    2.1659488501E-03
    2.1467360652E-03    2.1276916799E-03    2.1088142420E-03    2.0901023114E-03
    2.0715544604E-03    2.0531692737E-03    2.0349453479E-03    2.0168812917E-03
    1.9989757255E-03    1.9812272819E-03    1.9636346048E-03    1.9461963497E-03
    1.9289111839E-03    1.9117777857E-03    1.8947948449E-03    1.8779610623E-03
    1.8612751501E-03    1.8447358311E-03    1.8283418392E-03    1.8120919190E-03
    1.7959848259E-03    1.7800193259E-03    1.7641941954E-03    1.7485082212E-03
    1.7329602007E-03    1.7175489411E-03    1.7022732601E-03    1.6871319854E-03
    1.6721239546E-03    1.6572480151E-03    1.6425030244E-03    1.6278878494E-03
    1.6134013669E-03    1.5990424629E-03    1.5848100333E-03    1.5707029831E-03
    1.5567202266E-03    1.5428606875E-03    1.5291232986E-03    1.5155070016E-03
    1.5020107474E-03    1.4886334957E-03    1.4753742151E-03    1.4622318830E-03
    1.4492054852E-03    1.4362940165E-03    1.4234964801E-03    1.4108118876E-03
    1.3982392590E-03    1.3857776227E-03    1.3734260153E-03    1.3611834817E-03
    1.3490490747E-03    1.3370218553E-03    1.3251008924E-03    1.3132852630E-03
    1.3015740517E-03    1.2899663510E-03    1.2784612610E-03    1.2670578897E-03
    1.2557553524E-03    1.2445527721E-03    1.2334492791E-03    1.2224440113E-03
    1.2115361137E-03    1.2007247388E-03    1.1900090461E-03    1.1793882025E-03
    1.1688613816E-03    1.1584277644E-03    1.1480865387E-03    1.1378368992E-03
    1.1276780476E-03    1.1176091922E-03    1.1076295481E-03    1.0977383372E-03
    1.0879347879E-03    1.0782181351E-03    1.0685876205E-03    1.0590424920E-03
    1.0495820039E-03    1.0402054172E-03    1.0309119987E-03    1.0217010218E-03
    1.0125717661E-03    1.0035235170E-03    9.9455556652E-04    9.8566721226E-04
    9.7685775805E-04    9.6812651361E-04    9.5947279455E-04    9.5089592234E-04
    9.4239522423E-04    9.3397003323E-04    9.2561968804E-04    9.1734353303E-04
    9.0914091815E-04    9.0101119895E-04    8.9295373644E-04    8.8496789714E-04
    8.7705305299E-04    8.6920858128E-04    8.6143386465E-04    8.5372829104E-04
    8.4609125360E-04    8.3852215072E-04    8.3102038593E-04    8.2358536786E-04
    8.1621651024E-04    8.0891323180E-04    8.0167495629E-04    7.9450111238E-04
    7.8739113367E-04    7.8034445860E-04    7.7336053045E-04    7.6643879728E-04
    7.5957871189E-04    7.5277973180E-04    7.4604131919E-04    7.3936294085E-04
    7.3274406817E-04    7.2618417710E-04    7.1968274810E-04    7.1323926610E-04
    7.0685322046E-04    7.0052410495E-04    6.9425141770E-04    6.8803466118E-04
    6.8187334214E-04    6.7576697159E-04    6.6971506476E-04    6.6371714106E-04
    6.5777272405E-04    6.5188134143E-04    6.4604252495E-04    6.4025581042E-04
    6.3452073766E-04    6.2883685049E-04    6.2320369665E-04    6.1762082780E-04
    6.1208779949E-04    6.0660417111E-04    6.0116950589E-04    5.9578337080E-04
    5.9044533661E-04    5.8515497778E-04    5.7991187247E-04    5.7471560250E-04
    5.6956575332E-04    5.6446191397E-04    5.5940367708E-04    5.5439063879E-04
    5.4942239877E-04    5.4449856016E-04    5.3961872954E-04    5.3478251693E-04
    5.2998953574E-04    5.2523940273E-04    5.2053173799E-04    5.1586616495E-04
    5.1124231029E-04    5.0665980395E-04    5.0211827910E-04    4.9761737209E-04
    4.9315672246E-04    4.8873597289E-04    4.8435476917E-04    4.8001276018E-04
    4.7570959786E-04    4.7144493722E-04    4.6721843623E-04    4.6302975590E-04
    4.5887856017E-04    4.5476451592E-04    4.5068729296E-04    4.4664656396E-04
    4.4264200449E-04    4.3867329292E-04    4.3474011046E-04    4.3084214110E-04
    4.2697907160E-04    4.2315059147E-04    4.1935639293E-04    4.1559617090E-04
    4.1186962298E-04    4.0817644942E-04    4.0451635308E-04    4.0088903947E-04
    3.9729421664E-04    3.9373159522E-04    3.9020088838E-04    3.8670181182E-04
    3.8323408371E-04    3.7979742473E-04    3.7639155800E-04    3.7301620905E-04
    3.6967110586E-04    3.6635597878E-04    3.6307056055E-04    3.5981458625E-04
    3.5658779328E-04    3.5338992138E-04    3.5022071256E-04    3.4707991110E-04
    3.4396726356E-04    3.4088251870E-04    3.3782542751E-04    3.3479574318E-04
    3.3179322107E-04    3.2881761870E-04    3.2586869572E-04    3.2294621392E-04
    3.2004993716E-04    3.1717963143E-04    3.1433506475E-04    3.1151600719E-04
    3.0872223088E-04    3.0595350993E-04    3.0320962047E-04    3.0049034060E-04
    2.9779545037E-04    2.9512473180E-04    2.9247796882E-04    2.8985494727E-04
    2.8725545490E-04    2.8467928133E-04    2.8212621803E-04    2.7959605833E-04
    2.7708859740E-04    2.7460363220E-04    2.7214096150E-04    2.6970038587E-04
    2.6728170761E-04    2.6488473081E-04    2.6250926128E-04    2.6015510654E-04
    2.5782207584E-04    2.5550998011E-04    2.5321863195E-04    2.5094784565E-04
    2.4869743712E-04    2.4646722391E-04    2.4425702520E-04    2.4206666178E-04
    2.3989595600E-04    2.3774473183E-04    2.3561281477E-04    2.3350003189E-04
    2.3140621180E-04    2.2933118461E-04    2.2727478197E-04    2.2523683700E-04
    2.2321718432E-04    2.2121566003E-04    2.1923210166E-04    2.1726634821E-04
    2.1531824010E-04    2.1338761918E-04    2.1147432870E-04    2.0957821331E-04
    2.0769911904E-04    2.0583689329E-04    2.0399138482E-04    2.0216244375E-04
    2.0034992152E-04    1.9855367090E-04    1.9677354596E-04    1.9500940210E-04
    1.9326109598E-04    1.9152848554E-04    1.8981143002E-04    1.8810978987E-04
    1.8642342681E-04    1.8475220380E-04    1.8309598500E-04    1.8145463581E-04
    1.7982802279E-04    1.7821601374E-04    1.7661847761E-04    1.7503528453E-04
    1.7346630577E-04    1.7191141379E-04    1.7037048214E-04    1.6884338555E-04
    1.6732999983E-04    1.6583020191E-04    1.6434386983E-04    1.6287088272E-04
    1.6141112076E-04    1.5996446525E-04    1.5853079851E-04    1.5711000393E-04
    1.5570196595E-04    1.5430657002E-04    1.5292370263E-04    1.5155325129E-04
    1.5019510451E-04    1.4884915179E-04    1.4751528363E-04    1.4619339150E-04
    1.4488336786E-04    1.4358510611E-04    1.4229850061E-04    1.4102344667E-04
    1.3975984055E-04    1.3850757941E-04    1.3726656135E-04    1.3603668538E-04
    1.3481785141E-04    1.3360996026E-04    1.3241291361E-04    1.3122661405E-04
    1.3005096503E-04    1.2888587087E-04    1.2773123673E-04    1.2658696865E-04
    1.2545297349E-04    1.2432915894E-04    1.2321543355E-04    1.2211170664E-04
    1.2101788840E-04    1.1993388977E-04    1.1885962253E-04    1.1779499923E-04
    1.1673993321E-04    1.1569433858E-04    1.1465813024E-04    1.1363122384E-04
    1.1261353577E-04    1.1160498321E-04    1.1060548404E-04    1.0961495691E-04
    1.0863332118E-04    1.0766049695E-04    1.0669640502E-04    1.0574096690E-04
    1.0479410483E-04    1.0385574172E-04    1.0292580119E-04    1.0200420753E-04
    1.0109088572E-04    1.0018576141E-04    9.9288760929E-05    9.8399811247E-05
    9.7518840005E-05    9.6645775487E-05    9.5780546625E-05    9.4923082985E-05
    9.4073314770E-05    9.3231172807E-05    9.2396588545E-05    9.1569494050E-05
    9.0749821995E-05    8.9937505662E-05    8.9132478930E-05    8.8334676272E-05
    8.7544032750E-05    8.6760484011E-05    8.5983966278E-05    8.5214416348E-05
    8.4451771586E-05    8.3695969921E-05    8.2946949838E-05    8.2204650376E-05
    8.1469011121E-05    8.0739972203E-05    8.0017474290E-05    7.9301458584E-05
    7.8591866813E-05    7.7888641231E-05    7.7191724611E-05    7.6501060240E-05
    7.5816591916E-05    7.5138263940E-05    7.4466021117E-05    7.3799808744E-05
    7.3139572615E-05    7.2485259007E-05    7.1836814683E-05    7.1194186883E-05
    7.0557323322E-05    6.9926172187E-05    6.9300682128E-05    6.8680802258E-05
    6.8066482149E-05    6.7457671824E-05    6.6854321759E-05    6.6256382872E-05
    6.5663806524E-05    6.5076544514E-05    6.4494549074E-05    6.3917772866E-05
    6.3346168977E-05    6.2779690917E-05    6.2218292615E-05    6.1661928411E-05
    6.1110553061E-05    6.0564121723E-05    6.0022589962E-05    5.9485913740E-05
    5.8954049419E-05    5.8426953750E-05    5.7904583874E-05    5.7386897320E-05
    5.6873851995E-05    5.6365406189E-05    5.5861518565E-05    5.5362148157E-05
    5.4867254371E-05    5.4376796975E-05    5.3890736100E-05    5.3409032238E-05
    5.2931646233E-05    5.2458539283E-05    5.1989672936E-05    5.1525009085E-05
    5.1064509967E-05    5.0608138157E-05    5.0155856568E-05    4.9707628447E-05
    4.9263417371E-05    4.8823187246E-05    4.8386902301E-05    4.7954527089E-05
    4.7526026481E-05    4.7101365664E-05    4.6680510138E-05    4.6263425715E-05
    4.5850078513E-05    4.5440434956E-05    4.5034461770E-05    4.4632125981E-05
    4.4233394910E-05    4.3838236174E-05    4.3446617681E-05    4.3058507627E-05
    4.2673874495E-05    4.2292687051E-05    4.1914914344E-05    4.1540525700E-05
    4.1169490721E-05    4.0801779282E-05    4.0437361532E-05    4.0076207885E-05
    3.9718289024E-05    3.9363575895E-05    3.9012039705E-05    3.8663651921E-05
    3.8318384266E-05    3.7976208718E-05    3.7637097508E-05    3.7301023114E-05
    3.6967958266E-05    3.6637875936E-05    3.6310749341E-05    3.5986551938E-05
    3.5665257424E-05    3.5346839731E-05    3.5031273029E-05    3.4718531716E-05
    3.4408590423E-05    3.4101424011E-05    3.3797007563E-05    3.3495316389E-05
    3.3196326022E-05    3.2900012212E-05    3.2606350930E-05    3.2315318363E-05
    3.2026890911E-05    3.1741045187E-05    3.1457758015E-05    3.1177006427E-05
    3.0898767662E-05    3.0623019163E-05    3.0349738577E-05    3.0078903752E-05
    2.9810492735E-05    2.9544483770E-05    2.9280855299E-05    2.9019585955E-05
    2.8760654565E-05    2.8504040147E-05    2.8249721907E-05    2.7997679237E-05
    2.7747891716E-05    2.7500339107E-05    2.7255001354E-05    2.7011858582E-05
    2.6770891094E-05    2.6532079372E-05    2.6295404072E-05    2.6060846024E-05
    2.5828386232E-05    2.5598005870E-05    2.5369686280E-05    2.5143408974E-05
    2.4919155630E-05    2.4696908089E-05    2.4476648359E-05    2.4258358605E-05
    2.4042021156E-05    2.3827618499E-05    2.3615133278E-05    2.3404548295E-05
    2.3195846504E-05    2.2989011013E-05    2.2784025085E-05    2.2580872129E-05
    2.2379535706E-05    2.2179999524E-05    2.1982247439E-05    2.1786263449E-05
    2.1592031699E-05    2.1399536475E-05    2.1208762206E-05    2.1019693458E-05
    2.0832314939E-05    2.0646611492E-05    2.0462568099E-05    2.0280169874E-05
    2.0099402068E-05    1.9920250061E-05    1.9742699368E-05    1.9566735631E-05
    1.9392344625E-05    1.9219512250E-05    1.9048224533E-05    1.8878467627E-05
    1.8710227810E-05    1.8543491484E-05    1.8378245170E-05    1.8214475514E-05
    1.8052169281E-05    1.7891313353E-05    1.7731894732E-05    1.7573900536E-05
    1.7417318000E-05    1.7262134472E-05    1.7108337415E-05    1.6955914404E-05
   </PP_CHI.3>
   <PP_CHI.4
       type="real"
       size="1288"
       columns="4"
       index="4"
       occupation=" 2.000"
       pseudo_energy="   -0.4566922612E+00"
       label="4S"
       l="0" >
   -3.8350808640E-11   -8.9391532856E-03   -1.7866652998E-02   -2.6770849906E-02
   -3.5640103772E-02   -4.4462788614E-02   -5.3227298858E-02   -6.1922056625E-02
   -7.0535520374E-02   -7.9056195051E-02   -8.7472643879E-02   -9.5773501820E-02
   -1.0394749074E-01   -1.1198343619E-01   -1.1987028573E-01   -1.2759712854E-01
   -1.3515321625E-01   -1.4252798457E-01   -1.4971107554E-01   -1.5669236000E-01
   -1.6346196005E-01   -1.7001027105E-01   -1.7632798289E-01   -1.8240610023E-01
   -1.8823596131E-01   -1.9380925529E-01   -1.9911803762E-01   -2.0415474353E-01
   -2.0891219938E-01   -2.1338363189E-01   -2.1756267517E-01   -2.2144337577E-01
   -2.2502019564E-01   -2.2828801344E-01   -2.3124212413E-01   -2.3387823737E-01
   -2.3619247475E-01   -2.3818136637E-01   -2.3984184694E-01   -2.4117125173E-01
   -2.4216731273E-01   -2.4282815518E-01   -2.4315229483E-01   -2.4313863599E-01
   -2.4278647064E-01   -2.4209547856E-01   -2.4106572870E-01   -2.3969768154E-01
   -2.3799219247E-01   -2.3595051607E-01   -2.3357431103E-01   -2.3086564541E-01
   -2.2782700207E-01   -2.2446128385E-01   -2.2077181815E-01   -2.1676236061E-01
   -2.1243709751E-01   -2.0780064644E-01   -2.0285805510E-01   -1.9761479782E-01
   -1.9207676955E-01   -1.8625027722E-01   -1.8014202825E-01   -1.7375911622E-01
   -1.6710900366E-01   -1.6019950215E-01   -1.5303874971E-01   -1.4563518584E-01
   -1.3799752454E-01   -1.3013472546E-01   -1.2205596382E-01   -1.1377059932E-01
   -1.0528814464E-01   -9.6618233938E-02   -8.7770591834E-02   -7.8755003344E-02
   -6.9581285161E-02   -6.0259258712E-02   -5.0798725310E-02   -4.1209443676E-02
   -3.1501110061E-02   -2.1683341067E-02   -1.1765659244E-02   -1.7574814341E-03
    8.3318902535E-03    1.8493275002E-02    2.8717617643E-02    3.8995991119E-02
    4.9319597422E-02    5.9679767414E-02    7.0067959961E-02    8.0475760839E-02
    9.0894881848E-02    1.0131716058E-01    1.1173456123E-01    1.2213917684E-01
    1.3252323321E-01    1.4287909481E-01    1.5319927279E-01    1.6347643516E-01
    1.7370341920E-01    1.8387324591E-01    1.9397913640E-01    2.0401452992E-01
    2.1397310316E-01    2.2384879051E-01    2.3363580462E-01    2.4332865698E-01
    2.5292217781E-01    2.6241153477E-01    2.7179224995E-01    2.8106021453E-01
    2.9021170071E-01    2.9924337046E-01    3.0815228056E-01    3.1693588386E-01
    3.2559202634E-01    3.3411894003E-01    3.4251523164E-01    3.5077986706E-01
    3.5891215200E-01    3.6691170893E-01    3.7477845088E-01    3.8251255247E-01
    3.9011441886E-01    3.9758465314E-01    4.0492402291E-01    4.1213342678E-01
    4.1921386145E-01    4.2616639011E-01    4.3299211289E-01    4.3969213998E-01
    4.4626756799E-01    4.5271946008E-01    4.5904883033E-01    4.6525663258E-01
    4.7134375473E-01    4.7731104146E-01    4.8315935358E-01    4.8888958139E-01
    4.9450264384E-01    4.9999948742E-01    5.0538108469E-01    5.1064843281E-01
    5.1580255189E-01    5.2084448315E-01    5.2577528709E-01    5.3059604158E-01
    5.3530783988E-01    5.3991178870E-01    5.4440900631E-01    5.4880062064E-01
    5.5308776753E-01    5.5727158901E-01    5.6135323174E-01    5.6533384552E-01
    5.6921458198E-01    5.7299659331E-01    5.7668103118E-01    5.8026904575E-01
    5.8376178483E-01    5.8716039307E-01    5.9046601129E-01    5.9367977594E-01
    5.9680281854E-01    5.9983626529E-01    6.0278123665E-01    6.0563884703E-01
    6.0841020450E-01    6.1109641056E-01    6.1369855988E-01    6.1621774015E-01
    6.1865503189E-01    6.2101150828E-01    6.2328823504E-01    6.2548627028E-01
    6.2760666442E-01    6.2965046000E-01    6.3161869167E-01    6.3351238603E-01
    6.3533256156E-01    6.3708022853E-01    6.3875638896E-01    6.4036203650E-01
    6.4189815641E-01    6.4336572548E-01    6.4476571203E-01    6.4609907581E-01
    6.4736676804E-01    6.4856973134E-01    6.4970889973E-01    6.5078519865E-01
    6.5179954493E-01    6.5275284682E-01    6.5364600401E-01    6.5447990763E-01
    6.5525544028E-01    6.5597347610E-01    6.5663488072E-01    6.5724051140E-01
    6.5779121697E-01    6.5828783794E-01    6.5873120649E-01    6.5912214653E-01
    6.5946147376E-01    6.5974999564E-01    6.5998851151E-01    6.6017781254E-01
    6.6031868183E-01    6.6041189440E-01    6.6045821721E-01    6.6045840923E-01
    6.6041322141E-01    6.6032339673E-01    6.6018967022E-01    6.6001276897E-01
    6.5979341216E-01    6.5953231106E-01    6.5923016905E-01    6.5888768166E-01
    6.5850553656E-01    6.5808441360E-01    6.5762498480E-01    6.5712791443E-01
    6.5659385897E-01    6.5602346716E-01    6.5541738004E-01    6.5477623097E-01
    6.5410064565E-01    6.5339124219E-01    6.5264863109E-01    6.5187341535E-01
    6.5106619045E-01    6.5022754443E-01    6.4935805795E-01    6.4845830429E-01
    6.4752884945E-01    6.4657025219E-01    6.4558306408E-01    6.4456782957E-01
    6.4352508603E-01    6.4245536386E-01    6.4135918647E-01    6.4023707046E-01
    6.3908952557E-01    6.3791705483E-01    6.3672015459E-01    6.3549931460E-01
    6.3425501809E-01    6.3298774181E-01    6.3169795613E-01    6.3038612510E-01
    6.2905270652E-01    6.2769815202E-01    6.2632290711E-01    6.2492741127E-01
    6.2351209801E-01    6.2207739497E-01    6.2062372392E-01    6.1915150090E-01
    6.1766113627E-01    6.1615303474E-01    6.1462759551E-01    6.1308521224E-01
    6.1152627322E-01    6.0995116135E-01    6.0836025427E-01    6.0675392437E-01
    6.0513253889E-01    6.0349645997E-01    6.0184604471E-01    6.0018164523E-01
    5.9850360874E-01    5.9681227759E-01    5.9510798933E-01    5.9339107678E-01
    5.9166186805E-01    5.8992068666E-01    5.8816785153E-01    5.8640367708E-01
    5.8462847328E-01    5.8284254566E-01    5.8104619543E-01    5.7923971947E-01
    5.7742341043E-01    5.7559755677E-01    5.7376244277E-01    5.7191834864E-01
    5.7006555052E-01    5.6820432057E-01    5.6633492700E-01    5.6445763409E-01
    5.6257270228E-01    5.6068038820E-01    5.5878094471E-01    5.5687462095E-01
    5.5496166240E-01    5.5304231089E-01    5.5111680466E-01    5.4918537843E-01
    5.4724826341E-01    5.4530568733E-01    5.4335787455E-01    5.4140504600E-01
    5.3944741932E-01    5.3748520884E-01    5.3551862563E-01    5.3354787756E-01
    5.3157316931E-01    5.2959470245E-01    5.2761267543E-01    5.2562728364E-01
    5.2363871946E-01    5.2164717228E-01    5.1965282854E-01    5.1765587178E-01
    5.1565648264E-01    5.1365483895E-01    5.1165111571E-01    5.0964548516E-01
    5.0763811681E-01    5.0562917745E-01    5.0361883121E-01    5.0160723961E-01
    4.9959456152E-01    4.9758095328E-01    4.9556656867E-01    4.9355155898E-01
    4.9153607302E-01    4.8952025715E-01    4.8750425532E-01    4.8548820910E-01
    4.8347225772E-01    4.8145653807E-01    4.7944118477E-01    4.7742633014E-01
    4.7541210430E-01    4.7339863515E-01    4.7138604842E-01    4.6937446768E-01
    4.6736401438E-01    4.6535480787E-01    4.6334696545E-01    4.6134060237E-01
    4.5933583186E-01    4.5733276521E-01    4.5533151164E-01    4.5333217849E-01
    4.5133487119E-01    4.4933969328E-01    4.4734674644E-01    4.4535613050E-01
    4.4336794348E-01    4.4138228160E-01    4.3939923934E-01    4.3741890940E-01
    4.3544138277E-01    4.3346674875E-01    4.3149509496E-01    4.2952650735E-01
    4.2756107024E-01    4.2559886637E-01    4.2363997684E-01    4.2168448122E-01
    4.1973245751E-01    4.1778398219E-01    4.1583913023E-01    4.1389797511E-01
    4.1196058886E-01    4.1002704203E-01    4.0809740376E-01    4.0617174179E-01
    4.0425012246E-01    4.0233261072E-01    4.0041927020E-01    3.9851016316E-01
    3.9660535058E-01    3.9470489211E-01    3.9280884613E-01    3.9091726976E-01
    3.8903021886E-01    3.8714774808E-01    3.8526991084E-01    3.8339675936E-01
    3.8152834469E-01    3.7966471671E-01    3.7780592417E-01    3.7595201465E-01
    3.7410303465E-01    3.7225902954E-01    3.7042004363E-01    3.6858612014E-01
    3.6675730124E-01    3.6493362805E-01    3.6311514068E-01    3.6130187820E-01
    3.5949387872E-01    3.5769117932E-01    3.5589381615E-01    3.5410182437E-01
    3.5231523822E-01    3.5053409099E-01    3.4875841506E-01    3.4698824192E-01
    3.4522360214E-01    3.4346452543E-01    3.4171104063E-01    3.3996317573E-01
    3.3822095786E-01    3.3648441334E-01    3.3475356766E-01    3.3302844550E-01
    3.3130907077E-01    3.2959546656E-01    3.2788765523E-01    3.2618565833E-01
    3.2448949670E-01    3.2279919042E-01    3.2111475885E-01    3.1943622064E-01
    3.1776359372E-01    3.1609689533E-01    3.1443614201E-01    3.1278134964E-01
    3.1113253344E-01    3.0948970795E-01    3.0785288708E-01    3.0622208411E-01
    3.0459731166E-01    3.0297858177E-01    3.0136590586E-01    2.9975929473E-01
    2.9815875861E-01    2.9656430715E-01    2.9497594943E-01    2.9339369394E-01
    2.9181754864E-01    2.9024752093E-01    2.8868361769E-01    2.8712584525E-01
    2.8557420943E-01    2.8402871553E-01    2.8248936834E-01    2.8095617217E-01
    2.7942913082E-01    2.7790824763E-01    2.7639352544E-01    2.7488496664E-01
    2.7338257316E-01    2.7188634646E-01    2.7039628758E-01    2.6891239712E-01
    2.6743467522E-01    2.6596312163E-01    2.6449773567E-01    2.6303851624E-01
    2.6158546185E-01    2.6013857062E-01    2.5869784026E-01    2.5726326811E-01
    2.5583485112E-01    2.5441258589E-01    2.5299646863E-01    2.5158649523E-01
    2.5018266117E-01    2.4878496165E-01    2.4739339147E-01    2.4600794513E-01
    2.4462861679E-01    2.4325540030E-01    2.4188828917E-01    2.4052727662E-01
    2.3917235555E-01    2.3782351856E-01    2.3648075797E-01    2.3514406579E-01
    2.3381343374E-01    2.3248885330E-01    2.3117031563E-01    2.2985781164E-01
    2.2855133198E-01    2.2725086704E-01    2.2595640693E-01    2.2466794155E-01
    2.2338546052E-01    2.2210895324E-01    2.2083840887E-01    2.1957381633E-01
    2.1831516432E-01    2.1706244132E-01    2.1581563559E-01    2.1457473517E-01
    2.1333972789E-01    2.1211060138E-01    2.1088734308E-01    2.0966994021E-01
    2.0845837982E-01    2.0725264874E-01    2.0605273365E-01    2.0485862102E-01
    2.0367029716E-01    2.0248774820E-01    2.0131096010E-01    2.0013991867E-01
    1.9897460952E-01    1.9781501814E-01    1.9666112984E-01    1.9551292980E-01
    1.9437040302E-01    1.9323353438E-01    1.9210230862E-01    1.9097671032E-01
    1.8985672395E-01    1.8874233383E-01    1.8763352416E-01    1.8653027902E-01
    1.8543258235E-01    1.8434041798E-01    1.8325376964E-01    1.8217262092E-01
    1.8109695532E-01    1.8002675621E-01    1.7896200689E-01    1.7790269052E-01
    1.7684879019E-01    1.7580028888E-01    1.7475716949E-01    1.7371941480E-01
    1.7268700754E-01    1.7165993033E-01    1.7063816571E-01    1.6962169614E-01
    1.6861050402E-01    1.6760457164E-01    1.6660388125E-01    1.6560841501E-01
    1.6461815503E-01    1.6363308333E-01    1.6265318188E-01    1.6167843258E-01
    1.6070881730E-01    1.5974431782E-01    1.5878491587E-01    1.5783059315E-01
    1.5688133128E-01    1.5593711185E-01    1.5499791640E-01    1.5406372642E-01
    1.5313452338E-01    1.5221028867E-01    1.5129100368E-01    1.5037664975E-01
    1.4946720816E-01    1.4856266021E-01    1.4766298712E-01    1.4676817010E-01
    1.4587819035E-01    1.4499302901E-01    1.4411266722E-01    1.4323708609E-01
    1.4236626671E-01    1.4150019015E-01    1.4063883747E-01    1.3978218971E-01
    1.3893022789E-01    1.3808293302E-01    1.3724028611E-01    1.3640226814E-01
    1.3556886010E-01    1.3474004296E-01    1.3391579770E-01    1.3309610529E-01
    1.3228094668E-01    1.3147030285E-01    1.3066415475E-01    1.2986248336E-01
    1.2906526964E-01    1.2827249456E-01    1.2748413911E-01    1.2670018426E-01
    1.2592061102E-01    1.2514540038E-01    1.2437453335E-01    1.2360799096E-01
    1.2284575424E-01    1.2208780425E-01    1.2133412204E-01    1.2058468871E-01
    1.1983948533E-01    1.1909849304E-01    1.1836169295E-01    1.1762906624E-01
    1.1690059406E-01    1.1617625763E-01    1.1545603815E-01    1.1473991687E-01
    1.1402787506E-01    1.1331989401E-01    1.1261595504E-01    1.1191603950E-01
    1.1122012877E-01    1.1052820425E-01    1.0984024737E-01    1.0915623960E-01
    1.0847616244E-01    1.0779999742E-01    1.0712772610E-01    1.0645933007E-01
    1.0579479097E-01    1.0513409046E-01    1.0447721024E-01    1.0382413206E-01
    1.0317483769E-01    1.0252930894E-01    1.0188752768E-01    1.0124947578E-01
    1.0061513518E-01    9.9984487859E-02    9.9357515828E-02    9.8734201143E-02
    9.8114525901E-02    9.7498472246E-02    9.6886022361E-02    9.6277158475E-02
    9.5671862863E-02    9.5070117842E-02    9.4471905777E-02    9.3877209078E-02
    9.3286010202E-02    9.2698291654E-02    9.2114035983E-02    9.1533225791E-02
    9.0955843725E-02    9.0381872482E-02    8.9811294807E-02    8.9244093496E-02
    8.8680251396E-02    8.8119751402E-02    8.7562576462E-02    8.7008709573E-02
    8.6458133787E-02    8.5910832204E-02    8.5366787978E-02    8.4825984318E-02
    8.4288404481E-02    8.3754031782E-02    8.3222849586E-02    8.2694841314E-02
    8.2169990441E-02    8.1648280495E-02    8.1129695060E-02    8.0614217774E-02
    8.0101832332E-02    7.9592522482E-02    7.9086272030E-02    7.8583064837E-02
    7.8082884819E-02    7.7585715950E-02    7.7091542259E-02    7.6600347834E-02
    7.6112116819E-02    7.5626833413E-02    7.5144481877E-02    7.4665046524E-02
    7.4188511729E-02    7.3714861923E-02    7.3244081594E-02    7.2776155291E-02
    7.2311067620E-02    7.1848803243E-02    7.1389346883E-02    7.0932683323E-02
    7.0478797401E-02    7.0027674016E-02    6.9579298126E-02    6.9133654749E-02
    6.8690728959E-02    6.8250505892E-02    6.7812970742E-02    6.7378108764E-02
    6.6945905270E-02    6.6516345633E-02    6.6089415286E-02    6.5665099720E-02
    6.5243384487E-02    6.4824255198E-02    6.4407697524E-02    6.3993697196E-02
    6.3582240004E-02    6.3173311798E-02    6.2766898489E-02    6.2362986046E-02
    6.1961560499E-02    6.1562607938E-02    6.1166114512E-02    6.0772066429E-02
    6.0380449960E-02    5.9991251432E-02    5.9604457234E-02    5.9220053815E-02
    5.8838027682E-02    5.8458365402E-02    5.8081053604E-02    5.7706078973E-02
    5.7333428257E-02    5.6963088261E-02    5.6595045850E-02    5.6229287949E-02
    5.5865801543E-02    5.5504573674E-02    5.5145591445E-02    5.4788842018E-02
    5.4434312613E-02    5.4081990511E-02    5.3731863049E-02    5.3383917626E-02
    5.3038141698E-02    5.2694522780E-02    5.2353048444E-02    5.2013706324E-02
    5.1676484109E-02    5.1341369548E-02    5.1008350448E-02    5.0677414674E-02
    5.0348550148E-02    5.0021744852E-02    4.9696986823E-02    4.9374264158E-02
    4.9053565011E-02    4.8734877592E-02    4.8418190169E-02    4.8103491069E-02
    4.7790768673E-02    4.7480011422E-02    4.7171207810E-02    4.6864346391E-02
    4.6559415775E-02    4.6256404626E-02    4.5955301666E-02    4.5656095674E-02
    4.5358775483E-02    4.5063329984E-02    4.4769748120E-02    4.4478018894E-02
    4.4188131361E-02    4.3900074633E-02    4.3613837876E-02    4.3329410312E-02
    4.3046781216E-02    4.2765939920E-02    4.2486875808E-02    4.2209578320E-02
    4.1934036949E-02    4.1660241244E-02    4.1388180804E-02    4.1117845285E-02
    4.0849224396E-02    4.0582307898E-02    4.0317085605E-02    4.0053547386E-02
    3.9791683161E-02    3.9531482903E-02    3.9272936637E-02    3.9016034441E-02
    3.8760766445E-02    3.8507122831E-02    3.8255093833E-02    3.8004669735E-02
    3.7755840874E-02    3.7508597638E-02    3.7262930465E-02    3.7018829845E-02
    3.6776286318E-02    3.6535290475E-02    3.6295832956E-02    3.6057904453E-02
    3.5821495708E-02    3.5586597509E-02    3.5353200699E-02    3.5121296166E-02
    3.4890874850E-02    3.4661927739E-02    3.4434445869E-02    3.4208420325E-02
    3.3983842242E-02    3.3760702801E-02    3.3538993233E-02    3.3318704816E-02
    3.3099828875E-02    3.2882356784E-02    3.2666279963E-02    3.2451589880E-02
    3.2238278049E-02    3.2026336032E-02    3.1815755437E-02    3.1606527917E-02
    3.1398645173E-02    3.1192098952E-02    3.0986881046E-02    3.0782983293E-02
    3.0580397575E-02    3.0379115822E-02    3.0179130005E-02    2.9980432145E-02
    2.9783014303E-02    2.9586868588E-02    2.9391987149E-02    2.9198362184E-02
    2.9005985932E-02    2.8814850676E-02    2.8624948742E-02    2.8436272501E-02
    2.8248814365E-02    2.8062566791E-02    2.7877522278E-02    2.7693673366E-02
    2.7511012639E-02    2.7329532723E-02    2.7149226286E-02    2.6970086038E-02
    2.6792104728E-02    2.6615275150E-02    2.6439590138E-02    2.6265042566E-02
    2.6091625349E-02    2.5919331444E-02    2.5748153847E-02    2.5578085596E-02
    2.5409119766E-02    2.5241249475E-02    2.5074467879E-02    2.4908768175E-02
    2.4744143597E-02    2.4580587420E-02    2.4418092957E-02    2.4256653561E-02
    2.4096262622E-02    2.3936913569E-02    2.3778599869E-02    2.3621315029E-02
    2.3465052590E-02    2.3309806134E-02    2.3155569280E-02    2.3002335682E-02
    2.2850099033E-02    2.2698853063E-02    2.2548591538E-02    2.2399308261E-02
    2.2250997072E-02    2.2103651845E-02    2.1957266493E-02    2.1811834962E-02
    2.1667351235E-02    2.1523809331E-02    2.1381203305E-02    2.1239527243E-02
    2.1098775271E-02    2.0958941547E-02    2.0820020264E-02    2.0682005650E-02
    2.0544891966E-02    2.0408673509E-02    2.0273344608E-02    2.0138899626E-02
    2.0005332962E-02    1.9872639045E-02    1.9740812339E-02    1.9609847341E-02
    1.9479738579E-02    1.9350480618E-02    1.9222068050E-02    1.9094495504E-02
    1.8967757639E-02    1.8841849145E-02    1.8716764747E-02    1.8592499198E-02
    1.8469047286E-02    1.8346403828E-02    1.8224563673E-02    1.8103521701E-02
    1.7983272823E-02    1.7863811979E-02    1.7745134143E-02    1.7627234316E-02
    1.7510107531E-02    1.7393748851E-02    1.7278153368E-02    1.7163316204E-02
    1.7049232511E-02    1.6935897470E-02    1.6823306292E-02    1.6711454216E-02
    1.6600336511E-02    1.6489948473E-02    1.6380285429E-02    1.6271342733E-02
    1.6163115767E-02    1.6055599942E-02    1.5948790698E-02    1.5842683500E-02
    1.5737273843E-02    1.5632557248E-02    1.5528529265E-02    1.5425185471E-02
    1.5322521469E-02    1.5220532888E-02    1.5119215388E-02    1.5018564651E-02
    1.4918576389E-02    1.4819246337E-02    1.4720570259E-02    1.4622543944E-02
    1.4525163206E-02    1.4428423888E-02    1.4332321854E-02    1.4236852997E-02
    1.4142013234E-02    1.4047798507E-02    1.3954204784E-02    1.3861228058E-02
    1.3768864344E-02    1.3677109686E-02    1.3585960149E-02    1.3495411824E-02
    1.3405460825E-02    1.3316103293E-02    1.3227335389E-02    1.3139153300E-02
    1.3051553237E-02    1.2964531434E-02    1.2878084147E-02    1.2792207658E-02
    1.2706898271E-02    1.2622152311E-02    1.2537966129E-02    1.2454336097E-02
    1.2371258610E-02    1.2288730086E-02    1.2206746964E-02    1.2125305707E-02
    1.2044402798E-02    1.1964034744E-02    1.1884198073E-02    1.1804889334E-02
    1.1726105099E-02    1.1647841961E-02    1.1570096534E-02    1.1492865452E-02
    1.1416145374E-02    1.1339932975E-02    1.1264224955E-02    1.1189018032E-02
    1.1114308946E-02    1.1040094457E-02    1.0966371346E-02    1.0893136413E-02
    1.0820386480E-02    1.0748118387E-02    1.0676328995E-02    1.0605015184E-02
    1.0534173856E-02    1.0463801929E-02    1.0393896343E-02    1.0324454057E-02
    1.0255472048E-02    1.0186947313E-02    1.0118876868E-02    1.0051257748E-02
    9.9840870069E-03    9.9173617157E-03    9.8510789657E-03    9.7852358659E-03
    9.7198295437E-03    9.6548571448E-03    9.5903158329E-03    9.5262027896E-03
    9.4625152147E-03    9.3992503254E-03    9.3364053569E-03    9.2739775617E-03
    9.2119642100E-03    9.1503625891E-03    9.0891700039E-03    9.0283837760E-03
    8.9680012445E-03    8.9080197651E-03    8.8484367105E-03    8.7892494702E-03
    8.7304554502E-03    8.6720520732E-03    8.6140367781E-03    8.5564070203E-03
    8.4991602716E-03    8.4422940196E-03    8.3858057682E-03    8.3296930372E-03
    8.2739533623E-03    8.2185842947E-03    8.1635834016E-03    8.1089482656E-03
    8.0546764847E-03    8.0007656725E-03    7.9472134578E-03    7.8940174844E-03
    7.8411754115E-03    7.7886849131E-03    7.7365436783E-03    7.6847494107E-03
    7.6332998290E-03    7.5821926663E-03    7.5314256705E-03    7.4809966037E-03
    7.4309032425E-03    7.3811433779E-03    7.3317148149E-03    7.2826153727E-03
    7.2338428846E-03    7.1853951978E-03    7.1372701733E-03    7.0894656859E-03
    7.0419796241E-03    6.9948098901E-03    6.9479543994E-03    6.9014110813E-03
    6.8551778779E-03    6.8092527452E-03    6.7636336519E-03    6.7183185801E-03
    6.6733055247E-03    6.6285924939E-03    6.5841775083E-03    6.5400586016E-03
    6.4962338202E-03    6.4527012230E-03    6.4094588815E-03    6.3665048798E-03
    6.3238373142E-03    6.2814542934E-03    6.2393539384E-03    6.1975343823E-03
    6.1559937703E-03    6.1147302597E-03    6.0737420195E-03    6.0330272309E-03
    5.9925840866E-03    5.9524107912E-03    5.9125055609E-03    5.8728666235E-03
    5.8334922182E-03    5.7943805956E-03    5.7555300180E-03    5.7169387586E-03
    5.6786051019E-03    5.6405273437E-03    5.6027037908E-03    5.5651327609E-03
    5.5278125827E-03    5.4907415959E-03    5.4539181508E-03    5.4173406086E-03
    5.3810073410E-03    5.3449167306E-03    5.3090671700E-03    5.2734570629E-03
    5.2380848229E-03    5.2029488742E-03    5.1680476512E-03    5.1333795984E-03
    5.0989431707E-03    5.0647368328E-03    5.0307590595E-03    4.9970083357E-03
    4.9634831560E-03    4.9301820249E-03    4.8971034567E-03    4.8642459752E-03
    4.8316081142E-03    4.7991884167E-03    4.7669854355E-03    4.7349977326E-03
    4.7032238798E-03    4.6716624577E-03    4.6403120566E-03    4.6091712759E-03
    4.5782387241E-03    4.5475130189E-03    4.5169927869E-03    4.4866766638E-03
    4.4565632942E-03    4.4266513316E-03    4.3969394384E-03    4.3674262855E-03
    4.3381105528E-03    4.3089909286E-03    4.2800661100E-03    4.2513348025E-03
    4.2227957201E-03    4.1944475854E-03    4.1662891291E-03    4.1383190905E-03
    4.1105362170E-03    4.0829392642E-03    4.0555269960E-03    4.0282981844E-03
    4.0012516092E-03    3.9743860586E-03    3.9477003285E-03    3.9211932228E-03
    3.8948635532E-03    3.8687101393E-03    3.8427318083E-03    3.8169273954E-03
    3.7912957431E-03    3.7658357017E-03    3.7405461291E-03    3.7154258906E-03
    3.6904738591E-03    3.6656889147E-03    3.6410699450E-03    3.6166158450E-03
    3.5923255169E-03    3.5681978701E-03    3.5442318211E-03    3.5204262937E-03
    3.4967802188E-03    3.4732925341E-03    3.4499621846E-03    3.4267881220E-03
    3.4037693050E-03    3.3809046993E-03    3.3581932773E-03    3.3356340181E-03
    3.3132259075E-03    3.2909679383E-03    3.2688591096E-03    3.2468984273E-03
    3.2250849038E-03    3.2034175580E-03    3.1818954152E-03    3.1605175073E-03
    3.1392828725E-03    3.1181905553E-03    3.0972396067E-03    3.0764290837E-03
    3.0557580497E-03    3.0352255743E-03    3.0148307331E-03    2.9945726080E-03
    2.9744502868E-03    2.9544628634E-03    2.9346094377E-03    2.9148891155E-03
    2.8953010087E-03    2.8758442347E-03    2.8565179170E-03    2.8373211850E-03
    2.8182531736E-03    2.7993130235E-03    2.7804998812E-03    2.7618128986E-03
    2.7432512336E-03    2.7248140494E-03    2.7065005147E-03    2.6883098038E-03
    2.6702410965E-03    2.6522935779E-03    2.6344664388E-03    2.6167588749E-03
    2.5991700876E-03    2.5816992835E-03    2.5643456743E-03    2.5471084771E-03
    2.5299869141E-03    2.5129802128E-03    2.4960876056E-03    2.4793083301E-03
    2.4626416289E-03    2.4460867498E-03    2.4296429453E-03    2.4133094731E-03
    2.3970855958E-03    2.3809705807E-03    2.3649637002E-03    2.3490642313E-03
    2.3332714560E-03    2.3175846609E-03    2.3020031375E-03    2.2865261819E-03
    2.2711530948E-03    2.2558831817E-03    2.2407157526E-03    2.2256501221E-03
    2.2106856095E-03    2.1958215383E-03    2.1810572368E-03    2.1663920377E-03
    2.1518252779E-03    2.1373562990E-03    2.1229844468E-03    2.1087090716E-03
    2.0945295279E-03    2.0804451744E-03    2.0664553742E-03    2.0525594947E-03
    2.0387569074E-03    2.0250469879E-03    2.0114291161E-03    1.9979026759E-03
    1.9844670555E-03    1.9711216469E-03    1.9578658463E-03    1.9446990539E-03
    1.9316206740E-03    1.9186301145E-03    1.9057267876E-03    1.8929101094E-03
    1.8801794996E-03    1.8675343821E-03    1.8549741843E-03    1.8424983377E-03
    1.8301062775E-03    1.8177974425E-03    1.8055712755E-03    1.7934272228E-03
    1.7813647345E-03    1.7693832643E-03    1.7574822695E-03    1.7456612112E-03
    1.7339195539E-03    1.7222567658E-03    1.7106723184E-03    1.6991656871E-03
    1.6877363505E-03    1.6763837907E-03    1.6651074935E-03    1.6539069477E-03
    1.6427816460E-03    1.6317310840E-03    1.6207547610E-03    1.6098521796E-03
    1.5990228456E-03    1.5882662681E-03    1.5775819595E-03    1.5669694355E-03
    1.5564282150E-03    1.5459578201E-03    1.5355577761E-03    1.5252276114E-03
    1.5149668577E-03    1.5047750497E-03    1.4946517251E-03    1.4845964250E-03
    1.4746086932E-03    1.4646880769E-03    1.4548341260E-03    1.4450463937E-03
    1.4353244358E-03    1.4256678114E-03    1.4160760825E-03    1.4065488139E-03
    1.3970855734E-03    1.3876859315E-03    1.3783494619E-03    1.3690757408E-03
    1.3598643476E-03    1.3507148641E-03    1.3416268751E-03    1.3325999683E-03
    1.3236337339E-03    1.3147277650E-03    1.3058816574E-03    1.2970950094E-03
    1.2883674224E-03    1.2796985001E-03    1.2710878490E-03    1.2625350781E-03
    1.2540397991E-03    1.2456016265E-03    1.2372201770E-03    1.2288950700E-03
    1.2206259276E-03    1.2124123743E-03    1.2042540371E-03    1.1961505455E-03
    1.1881015314E-03    1.1801066293E-03    1.1721654762E-03    1.1642777113E-03
   </PP_CHI.4>
 </PP_PSWFC>
 <PP_NLCC type="real"  size="1288" columns="4">
    1.3177777384E+01    1.3172807076E+01    1.3157903523E+01    1.3133088833E+01
    1.3098399818E+01    1.3053887953E+01    1.2999619306E+01    1.2935674459E+01
    1.2862148400E+01    1.2779150406E+01    1.2686803905E+01    1.2585246313E+01
    1.2474628859E+01    1.2355116391E+01    1.2226887163E+01    1.2090132598E+01
    1.1945057041E+01    1.1791877485E+01    1.1630823289E+01    1.1462135863E+01
    1.1286068350E+01    1.1102885276E+01    1.0912862189E+01    1.0716285278E+01
    1.0513450974E+01    1.0304665528E+01    1.0090244577E+01    9.8705126867E+00
    9.6458028759E+00    9.4164561254E+00    9.1828208649E+00    8.9452524431E+00
    8.7041125787E+00    8.4597687929E+00    8.2125938229E+00    7.9629650175E+00
    7.7112637135E+00    7.4578745935E+00    7.2031850259E+00    6.9475843848E+00
    6.6914633530E+00    6.4352132050E+00    6.1792250721E+00    5.9238891889E+00
    5.6695941206E+00    5.4167259728E+00    5.1656675813E+00    4.9167976844E+00
    4.6704900762E+00    4.4271127410E+00    4.1870269697E+00    3.9505864571E+00
    3.7181363806E+00    3.4900124608E+00    3.2665400031E+00    3.0480329201E+00
    2.8347927369E+00    2.6271075764E+00    2.4252511267E+00    2.2294815893E+00
    2.0400406097E+00    1.8571521883E+00    1.6810215733E+00    1.5118341351E+00
    1.3497542213E+00    1.1949239942E+00    1.0474622487E+00    9.0746321234E-01
    7.7499532627E-01    6.5010000770E-01    5.3279039388E-01    4.2305006736E-01
    3.2083176262E-01    2.2605605423E-01    1.3861002619E-01    5.8345922878E-02
   -1.4920218768E-02   -8.1409955616E-02   -1.4138378566E-01   -1.9513640677E-01
   -2.4297591780E-01   -2.8521410168E-01   -3.2216409771E-01   -3.5413841548E-01
   -3.8144714639E-01   -4.0439636121E-01   -4.2328668367E-01   -4.3841203135E-01
   -4.5005851617E-01   -4.5850349701E-01   -4.6401477736E-01   -4.6684994039E-01
   -4.6725581370E-01   -4.6546805585E-01   -4.6171085620E-01   -4.5619673975E-01
   -4.4912646846E-01   -4.4068903078E-01   -4.3106171087E-01   -4.2041022975E-01
   -4.0888895020E-01   -3.9664113809E-01   -3.8379927257E-01   -3.7048539832E-01
   -3.5681151292E-01   -3.4287998321E-01   -3.2878398420E-01   -3.1460795522E-01
   -3.0042806754E-01   -2.8631269871E-01   -2.7232290872E-01   -2.5851291384E-01
   -2.4493055405E-01   -2.3161775059E-01   -2.1861095018E-01   -2.0594155330E-01
   -1.9363632373E-01   -1.8171777728E-01   -1.7020454781E-01   -1.5911172905E-01
   -1.4845119079E-01   -1.3823186871E-01   -1.2846002702E-01   -1.1913949343E-01
   -1.1027186637E-01   -1.0185669428E-01   -9.3891627232E-02   -8.6372541278E-02
   -7.9293635832E-02   -7.2647504862E-02   -6.6425182518E-02   -6.0616164007E-02
   -5.5208402592E-02   -5.0188283611E-02   -4.5540576470E-02   -4.1248365606E-02
   -3.7292976469E-02   -3.3654525412E-02   -3.0313393339E-02   -2.7250638946E-02
   -2.4448036080E-02   -2.1888099382E-02   -1.9554101743E-02   -1.7430084395E-02
   -1.5500860488E-02   -1.3752012950E-02   -1.2169887381E-02   -1.0741580666E-02
   -9.4549259721E-03   -8.2984746993E-03   -7.2614759488E-03   -6.3338539867E-03
   -5.5061841523E-03   -4.7696676042E-03   -4.1161052581E-03   -3.5378712231E-03
   -3.0278860072E-03   -2.5795897252E-03   -2.1869155067E-03   -1.8442632737E-03
   -1.5464740261E-03   -1.2888047514E-03   -1.0669040480E-03   -8.7678853669E-04
   -7.1482011174E-04   -5.7768407195E-04   -4.6236811008E-04   -3.6613926525E-04
   -2.8651718805E-04   -2.2125575470E-04   -1.6832831154E-04   -1.2591357369E-04
   -9.2382138669E-05   -6.6283605304E-05   -4.6334285162E-05   -3.1405491353E-05
   -2.0512387683E-05   -1.2803380007E-05   -7.5500308181E-06   -4.1374777462E-06
   -2.0553365384E-06   -8.8906928344E-07   -3.1179900768E-07   -7.6552297573E-08
   -8.9127085196E-09   -5.6821021351E-11    3.8249114155E-12    3.1242476060E-12
    2.3989121756E-12    2.0023288927E-12    1.6714561905E-12    1.3953889852E-12
    1.1650303902E-12    9.7278892671E-13    8.1235060794E-13    6.7844451331E-13
    5.6665962786E-13    4.7334084839E-13    3.9543194418E-13    3.3037827460E-13
    2.7605955736E-13    2.3068922833E-13    1.9280505447E-13    1.6114378198E-13
    1.3471056522E-13    1.1261730521E-13    9.4154827039E-14    7.8734936078E-14
    6.5840424036E-14    5.5072484449E-14    4.6061934430E-14    3.8533726716E-14
    3.2242428349E-14    2.6972631328E-14    2.2574570620E-14    1.8895021562E-14
    1.5816553378E-14    1.3238806768E-14    1.1085311102E-14    9.2836896776E-15
    7.7695381318E-15    6.5070601089E-15    5.4491868002E-15    4.5681766340E-15
    3.8230044915E-15    3.2058408803E-15    2.6882126014E-15    2.2504367921E-15
    1.8858072460E-15    1.5817085217E-15    1.3248202019E-15    1.1145717513E-15
    9.3342497392E-16    7.8188066268E-16    6.5502479668E-16    5.4998018307E-16
    4.6317068236E-16    3.8789230123E-16    3.2430899675E-16    2.7234160905E-16
    2.2759570284E-16    1.9172397627E-16    1.6274193405E-16    1.3484456729E-16
    1.1377557487E-16    9.4822448411E-17    8.0271145837E-17    6.7481903638E-17
    5.6563549529E-17    4.7436825568E-17    3.9942345148E-17    3.3556478676E-17
    2.8185115797E-17    2.3679002832E-17    1.9902749383E-17    1.6729359039E-17
    1.4063266660E-17    1.1823202686E-17    9.9408400580E-18    8.3589375646E-18
    7.0294080490E-18    5.9118818131E-18    4.9724645727E-18    4.1826957003E-18
    3.5186746844E-18    2.9603284365E-18    2.4907966646E-18    2.0959162277E-18
    1.7637884878E-18    1.4844162597E-18    1.2493991309E-18    1.0516777371E-18
    8.8531910700E-19    7.4533646018E-19    6.2753791405E-19    5.2839944678E-19
    4.4495821780E-19    3.7472297435E-19    3.1559879954E-19    2.6582390047E-19
    2.2391650397E-19    1.8863023999E-19    1.5891665226E-19    1.3389369448E-19
    1.1281925417E-19    9.5068899228E-20    8.0117172409E-20    6.7521866383E-20
    5.6910803270E-20    4.7970718743E-20    4.0437914874E-20    3.4090399474E-20
    2.8741275040E-20    2.4233178131E-20    2.0433601858E-20    1.7230960906E-20
    1.4531280920E-20    1.2255412973E-20    1.0336689596E-20    8.7189522573E-21
    7.3548912544E-21    6.2046484437E-21    5.2346410884E-21    4.4165717567E-21
    3.7265947714E-21    3.1446144049E-21    2.6536939475E-21    2.2395580936E-21
    1.8901738810E-21    1.5953977516E-21    1.3466782810E-21    1.1368057756E-21
    9.5970133319E-22    8.1023913389E-22    6.8409671620E-22    5.7762882111E-22
    4.8776108715E-22    4.1190046621E-22    3.4785972476E-22    2.9379381126E-22
    2.4814622078E-22    2.0960378334E-22    1.7705855007E-22    1.4957566083E-22
    1.2636625259E-22    1.0676461629E-22    9.0208934723E-23    7.6225038748E-23
    6.4412708190E-23    5.4434117834E-23    4.6004092073E-23    3.8881884494E-23
    3.2864243355E-23    2.7779561407E-23    2.3482940191E-23    1.9852025593E-23
    1.6783493905E-23    1.4190086609E-23    1.1998108015E-23    1.0145313390E-23
    8.5791265180E-24    7.2551352172E-24    6.1358213792E-24    5.1894889162E-24
    4.3893587131E-24    3.7128045217E-24    3.1407078104E-24    2.6569130154E-24
    2.2477675409E-24    1.9017333007E-24    1.6090586537E-24    1.3615013279E-24
    1.1520943939E-24    9.7494858737E-25    8.2508532531E-25    6.9829564041E-25
    5.9102100526E-25    5.0025264297E-25    4.2344645156E-25    3.5845111678E-25
    3.0344736540E-25    2.5689662941E-25    2.1749766075E-25    1.8414986300E-25
    1.5592229849E-25    1.3202749070E-25    1.1179927890E-25    9.4674096889E-26
    8.0175146144E-26    6.7899014067E-26    5.7504359908E-26    4.8702347867E-26
    4.1248557206E-26    3.4936140944E-26    2.9590040107E-26    2.5062090390E-26
    2.1226883360E-26    1.7978265614E-26    1.5226377530E-26    1.2895148047E-26
    1.0920175379E-26    9.2469339811E-27    7.8292574942E-27    6.6280551046E-27
    5.6102253597E-27    4.7477370011E-27    4.0168511259E-27    3.4013933367E-27
    2.8356538600E-27    2.5673227859E-27    1.7272281642E-27   -4.1549985108E-29
   -3.1559183280E-29    3.9201258498E-29    4.1400105480E-30    7.5825851758E-30
    6.3565747030E-30    5.3290743655E-30    4.4678960362E-30    3.7460783588E-30
    3.1410368305E-30    2.6338522015E-30    2.2086747971E-30    1.8522257734E-30
    1.5533795255E-30    1.3028140222E-30    1.0927180242E-30    9.1654586340E-31
    7.6881210779E-31    6.4491958261E-31    5.4101532644E-31    4.5386994622E-31
    3.8077655134E-31    3.1946609117E-31    2.6803643437E-31    2.2489295041E-31
    1.8869872815E-31    1.5833286605E-31    1.3285551801E-31    1.1147860739E-31
    9.3541283636E-32    7.8489354132E-32    6.5858046424E-32    5.5257558223E-32
    4.6360947694E-32    3.8893981924E-32    3.2626627788E-32    2.7365917866E-32
    2.2949969274E-32    1.9242969566E-32    1.6130972312E-32    1.3532741672E-32
    1.1214594532E-32    9.6678835822E-33    8.2382387175E-33    2.3991160634E-33
   -7.5370792385E-34    1.0876171950E-34    2.1789974818E-35   -1.4647661784E-35
    0.0000000000E+00    0.0000000000E+00    0.0000000000E+00    0.0000000000E+00
    0.0000000000E+00    0.0000000000E+00    0.0000000000E+00    0.0000000000E+00
    0.0000000000E+00    0.0000000000E+00    0.0000000000E+00    0.0000000000E+00
    0.0000000000E+00    0.0000000000E+00    0.0000000000E+00    0.0000000000E+00
    0.0000000000E+00    0.0000000000E+00    0.0000000000E+00    0.0000000000E+00
    0.0000000000E+00    0.0000000000E+00    0.0000000000E+00    0.0000000000E+00
    0.0000000000E+00    0.0000000000E+00    0.0000000000E+00    0.0000000000E+00
    0.0000000000E+00    0.0000000000E+00    0.0000000000E+00    0.0000000000E+00
    0.0000000000E+00    0.0000000000E+00    0.0000000000E+00    0.0000000000E+00
    0.0000000000E+00    0.0000000000E+00    0.0000000000E+00    0.0000000000E+00
    0.0000000000E+00    0.0000000000E+00    0.0000000000E+00    0.0000000000E+00
    0.0000000000E+00    0.0000000000E+00    0.0000000000E+00    0.0000000000E+00
    0.0000000000E+00    0.0000000000E+00    0.0000000000E+00    0.0000000000E+00
    0.0000000000E+00    0.0000000000E+00    0.0000000000E+00    0.0000000000E+00
    0.0000000000E+00    0.0000000000E+00    0.0000000000E+00    0.0000000000E+00
    0.0000000000E+00    0.0000000000E+00    0.0000000000E+00    0.0000000000E+00
    0.0000000000E+00    0.0000000000E+00    0.0000000000E+00    0.0000000000E+00
    0.0000000000E+00    0.0000000000E+00    0.0000000000E+00    0.0000000000E+00
    0.0000000000E+00    0.0000000000E+00    0.0000000000E+00    0.0000000000E+00
    0.0000000000E+00    0.0000000000E+00    0.0000000000E+00    0.0000000000E+00
    0.0000000000E+00    0.0000000000E+00    0.0000000000E+00    0.0000000000E+00
    0.0000000000E+00    0.0000000000E+00    0.0000000000E+00    0.0000000000E+00
    0.0000000000E+00    0.0000000000E+00    0.0000000000E+00    0.0000000000E+00
    0.0000000000E+00    0.0000000000E+00    0.0000000000E+00    0.0000000000E+00
    0.0000000000E+00    0.0000000000E+00    0.0000000000E+00    0.0000000000E+00
    0.0000000000E+00    0.0000000000E+00    0.0000000000E+00    0.0000000000E+00
    0.0000000000E+00    0.0000000000E+00    0.0000000000E+00    0.0000000000E+00
    0.0000000000E+00    0.0000000000E+00    0.0000000000E+00    0.0000000000E+00
    0.0000000000E+00    0.0000000000E+00    0.0000000000E+00    0.0000000000E+00
    0.0000000000E+00    0.0000000000E+00    0.0000000000E+00    0.0000000000E+00
    0.0000000000E+00    0.0000000000E+00    0.0000000000E+00    0.0000000000E+00
    0.0000000000E+00    0.0000000000E+00    0.0000000000E+00    0.0000000000E+00
    0.0000000000E+00    0.0000000000E+00    0.0000000000E+00    0.0000000000E+00
    0.0000000000E+00    0.0000000000E+00    0.0000000000E+00    0.0000000000E+00
    0.0000000000E+00    0.0000000000E+00    0.0000000000E+00    0.0000000000E+00
    0.0000000000E+00    0.0000000000E+00    0.0000000000E+00    0.0000000000E+00
    0.0000000000E+00    0.0000000000E+00    0.0000000000E+00    0.0000000000E+00
    0.0000000000E+00    0.0000000000E+00    0.0000000000E+00    0.0000000000E+00
    0.0000000000E+00    0.0000000000E+00    0.0000000000E+00    0.0000000000E+00
    0.0000000000E+00    0.0000000000E+00    0.0000000000E+00    0.0000000000E+00
    0.0000000000E+00    0.0000000000E+00    0.0000000000E+00    0.0000000000E+00
    0.0000000000E+00    0.0000000000E+00    0.0000000000E+00    0.0000000000E+00
    0.0000000000E+00    0.0000000000E+00    0.0000000000E+00    0.0000000000E+00
    0.0000000000E+00    0.0000000000E+00    0.0000000000E+00    0.0000000000E+00
    0.0000000000E+00    0.0000000000E+00    0.0000000000E+00    0.0000000000E+00
    0.0000000000E+00    0.0000000000E+00    0.0000000000E+00    0.0000000000E+00
    0.0000000000E+00    0.0000000000E+00    0.0000000000E+00    0.0000000000E+00
    0.0000000000E+00    0.0000000000E+00    0.0000000000E+00    0.0000000000E+00
    0.0000000000E+00    0.0000000000E+00    0.0000000000E+00    0.0000000000E+00
    0.0000000000E+00    0.0000000000E+00    0.0000000000E+00    0.0000000000E+00
    0.0000000000E+00    0.0000000000E+00    0.0000000000E+00    0.0000000000E+00
    0.0000000000E+00    0.0000000000E+00    0.0000000000E+00    0.0000000000E+00
    0.0000000000E+00    0.0000000000E+00    0.0000000000E+00    0.0000000000E+00
    0.0000000000E+00    0.0000000000E+00    0.0000000000E+00    0.0000000000E+00
    0.0000000000E+00    0.0000000000E+00    0.0000000000E+00    0.0000000000E+00
    0.0000000000E+00    0.0000000000E+00    0.0000000000E+00    0.0000000000E+00
    0.0000000000E+00    0.0000000000E+00    0.0000000000E+00    0.0000000000E+00
    0.0000000000E+00    0.0000000000E+00    0.0000000000E+00    0.0000000000E+00
    0.0000000000E+00    0.0000000000E+00    0.0000000000E+00    0.0000000000E+00
    0.0000000000E+00    0.0000000000E+00    0.0000000000E+00    0.0000000000E+00
    0.0000000000E+00    0.0000000000E+00    0.0000000000E+00    0.0000000000E+00
    0.0000000000E+00    0.0000000000E+00    0.0000000000E+00    0.0000000000E+00
    0.0000000000E+00    0.0000000000E+00    0.0000000000E+00    0.0000000000E+00
    0.0000000000E+00    0.0000000000E+00    0.0000000000E+00    0.0000000000E+00
    0.0000000000E+00    0.0000000000E+00    0.0000000000E+00    0.0000000000E+00
    0.0000000000E+00    0.0000000000E+00    0.0000000000E+00    0.0000000000E+00
    0.0000000000E+00    0.0000000000E+00    0.0000000000E+00    0.0000000000E+00
    0.0000000000E+00    0.0000000000E+00    0.0000000000E+00    0.0000000000E+00
    0.0000000000E+00    0.0000000000E+00    0.0000000000E+00    0.0000000000E+00
    0.0000000000E+00    0.0000000000E+00    0.0000000000E+00    0.0000000000E+00
    0.0000000000E+00    0.0000000000E+00    0.0000000000E+00    0.0000000000E+00
    0.0000000000E+00    0.0000000000E+00    0.0000000000E+00    0.0000000000E+00
    0.0000000000E+00    0.0000000000E+00    0.0000000000E+00    0.0000000000E+00
    0.0000000000E+00    0.0000000000E+00    0.0000000000E+00    0.0000000000E+00
    0.0000000000E+00    0.0000000000E+00    0.0000000000E+00    0.0000000000E+00
    0.0000000000E+00    0.0000000000E+00    0.0000000000E+00    0.0000000000E+00
    0.0000000000E+00    0.0000000000E+00    0.0000000000E+00    0.0000000000E+00
    0.0000000000E+00    0.0000000000E+00    0.0000000000E+00    0.0000000000E+00
    0.0000000000E+00    0.0000000000E+00    0.0000000000E+00    0.0000000000E+00
    0.0000000000E+00    0.0000000000E+00    0.0000000000E+00    0.0000000000E+00
    0.0000000000E+00    0.0000000000E+00    0.0000000000E+00    0.0000000000E+00
    0.0000000000E+00    0.0000000000E+00    0.0000000000E+00    0.0000000000E+00
    0.0000000000E+00    0.0000000000E+00    0.0000000000E+00    0.0000000000E+00
    0.0000000000E+00    0.0000000000E+00    0.0000000000E+00    0.0000000000E+00
    0.0000000000E+00    0.0000000000E+00    0.0000000000E+00    0.0000000000E+00
    0.0000000000E+00    0.0000000000E+00    0.0000000000E+00    0.0000000000E+00
    0.0000000000E+00    0.0000000000E+00    0.0000000000E+00    0.0000000000E+00
    0.0000000000E+00    0.0000000000E+00    0.0000000000E+00    0.0000000000E+00
    0.0000000000E+00    0.0000000000E+00    0.0000000000E+00    0.0000000000E+00
    0.0000000000E+00    0.0000000000E+00    0.0000000000E+00    0.0000000000E+00
    0.0000000000E+00    0.0000000000E+00    0.0000000000E+00    0.0000000000E+00
    0.0000000000E+00    0.0000000000E+00    0.0000000000E+00    0.0000000000E+00
    0.0000000000E+00    0.0000000000E+00    0.0000000000E+00    0.0000000000E+00
    0.0000000000E+00    0.0000000000E+00    0.0000000000E+00    0.0000000000E+00
    0.0000000000E+00    0.0000000000E+00    0.0000000000E+00    0.0000000000E+00
    0.0000000000E+00    0.0000000000E+00    0.0000000000E+00    0.0000000000E+00
    0.0000000000E+00    0.0000000000E+00    0.0000000000E+00    0.0000000000E+00
    0.0000000000E+00    0.0000000000E+00    0.0000000000E+00    0.0000000000E+00
    0.0000000000E+00    0.0000000000E+00    0.0000000000E+00    0.0000000000E+00
    0.0000000000E+00    0.0000000000E+00    0.0000000000E+00    0.0000000000E+00
    0.0000000000E+00    0.0000000000E+00    0.0000000000E+00    0.0000000000E+00
    0.0000000000E+00    0.0000000000E+00    0.0000000000E+00    0.0000000000E+00
    0.0000000000E+00    0.0000000000E+00    0.0000000000E+00    0.0000000000E+00
    0.0000000000E+00    0.0000000000E+00    0.0000000000E+00    0.0000000000E+00
    0.0000000000E+00    0.0000000000E+00    0.0000000000E+00    0.0000000000E+00
    0.0000000000E+00    0.0000000000E+00    0.0000000000E+00    0.0000000000E+00
    0.0000000000E+00    0.0000000000E+00    0.0000000000E+00    0.0000000000E+00
    0.0000000000E+00    0.0000000000E+00    0.0000000000E+00    0.0000000000E+00
    0.0000000000E+00    0.0000000000E+00    0.0000000000E+00    0.0000000000E+00
    0.0000000000E+00    0.0000000000E+00    0.0000000000E+00    0.0000000000E+00
    0.0000000000E+00    0.0000000000E+00    0.0000000000E+00    0.0000000000E+00
    0.0000000000E+00    0.0000000000E+00    0.0000000000E+00    0.0000000000E+00
    0.0000000000E+00    0.0000000000E+00    0.0000000000E+00    0.0000000000E+00
    0.0000000000E+00    0.0000000000E+00    0.0000000000E+00    0.0000000000E+00
    0.0000000000E+00    0.0000000000E+00    0.0000000000E+00    0.0000000000E+00
    0.0000000000E+00    0.0000000000E+00    0.0000000000E+00    0.0000000000E+00
    0.0000000000E+00    0.0000000000E+00    0.0000000000E+00    0.0000000000E+00
    0.0000000000E+00    0.0000000000E+00    0.0000000000E+00    0.0000000000E+00
    0.0000000000E+00    0.0000000000E+00    0.0000000000E+00    0.0000000000E+00
    0.0000000000E+00    0.0000000000E+00    0.0000000000E+00    0.0000000000E+00
    0.0000000000E+00    0.0000000000E+00    0.0000000000E+00    0.0000000000E+00
    0.0000000000E+00    0.0000000000E+00    0.0000000000E+00    0.0000000000E+00
    0.0000000000E+00    0.0000000000E+00    0.0000000000E+00    0.0000000000E+00
    0.0000000000E+00    0.0000000000E+00    0.0000000000E+00    0.0000000000E+00
    0.0000000000E+00    0.0000000000E+00    0.0000000000E+00    0.0000000000E+00
    0.0000000000E+00    0.0000000000E+00    0.0000000000E+00    0.0000000000E+00
    0.0000000000E+00    0.0000000000E+00    0.0000000000E+00    0.0000000000E+00
    0.0000000000E+00    0.0000000000E+00    0.0000000000E+00    0.0000000000E+00
    0.0000000000E+00    0.0000000000E+00    0.0000000000E+00    0.0000000000E+00
    0.0000000000E+00    0.0000000000E+00    0.0000000000E+00    0.0000000000E+00
    0.0000000000E+00    0.0000000000E+00    0.0000000000E+00    0.0000000000E+00
    0.0000000000E+00    0.0000000000E+00    0.0000000000E+00    0.0000000000E+00
    0.0000000000E+00    0.0000000000E+00    0.0000000000E+00    0.0000000000E+00
    0.0000000000E+00    0.0000000000E+00    0.0000000000E+00    0.0000000000E+00
    0.0000000000E+00    0.0000000000E+00    0.0000000000E+00    0.0000000000E+00
    0.0000000000E+00    0.0000000000E+00    0.0000000000E+00    0.0000000000E+00
    0.0000000000E+00    0.0000000000E+00    0.0000000000E+00    0.0000000000E+00
    0.0000000000E+00    0.0000000000E+00    0.0000000000E+00    0.0000000000E+00
    0.0000000000E+00    0.0000000000E+00    0.0000000000E+00    0.0000000000E+00
    0.0000000000E+00    0.0000000000E+00    0.0000000000E+00    0.0000000000E+00
    0.0000000000E+00    0.0000000000E+00    0.0000000000E+00    0.0000000000E+00
    0.0000000000E+00    0.0000000000E+00    0.0000000000E+00    0.0000000000E+00
    0.0000000000E+00    0.0000000000E+00    0.0000000000E+00    0.0000000000E+00
    0.0000000000E+00    0.0000000000E+00    0.0000000000E+00    0.0000000000E+00
    0.0000000000E+00    0.0000000000E+00    0.0000000000E+00    0.0000000000E+00
    0.0000000000E+00    0.0000000000E+00    0.0000000000E+00    0.0000000000E+00
    0.0000000000E+00    0.0000000000E+00    0.0000000000E+00    0.0000000000E+00
    0.0000000000E+00    0.0000000000E+00    0.0000000000E+00    0.0000000000E+00
    0.0000000000E+00    0.0000000000E+00    0.0000000000E+00    0.0000000000E+00
    0.0000000000E+00    0.0000000000E+00    0.0000000000E+00    0.0000000000E+00
    0.0000000000E+00    0.0000000000E+00    0.0000000000E+00    0.0000000000E+00
    0.0000000000E+00    0.0000000000E+00    0.0000000000E+00    0.0000000000E+00
    0.0000000000E+00    0.0000000000E+00    0.0000000000E+00    0.0000000000E+00
    0.0000000000E+00    0.0000000000E+00    0.0000000000E+00    0.0000000000E+00
    0.0000000000E+00    0.0000000000E+00    0.0000000000E+00    0.0000000000E+00
    0.0000000000E+00    0.0000000000E+00    0.0000000000E+00    0.0000000000E+00
    0.0000000000E+00    0.0000000000E+00    0.0000000000E+00    0.0000000000E+00
    0.0000000000E+00    0.0000000000E+00    0.0000000000E+00    0.0000000000E+00
    0.0000000000E+00    0.0000000000E+00    0.0000000000E+00    0.0000000000E+00
    0.0000000000E+00    0.0000000000E+00    0.0000000000E+00    0.0000000000E+00
    0.0000000000E+00    0.0000000000E+00    0.0000000000E+00    0.0000000000E+00
    0.0000000000E+00    0.0000000000E+00    0.0000000000E+00    0.0000000000E+00
    0.0000000000E+00    0.0000000000E+00    0.0000000000E+00    0.0000000000E+00
    0.0000000000E+00    0.0000000000E+00    0.0000000000E+00    0.0000000000E+00
    0.0000000000E+00    0.0000000000E+00    0.0000000000E+00    0.0000000000E+00
    0.0000000000E+00    0.0000000000E+00    0.0000000000E+00    0.0000000000E+00
    0.0000000000E+00    0.0000000000E+00    0.0000000000E+00    0.0000000000E+00
    0.0000000000E+00    0.0000000000E+00    0.0000000000E+00    0.0000000000E+00
    0.0000000000E+00    0.0000000000E+00    0.0000000000E+00    0.0000000000E+00
    0.0000000000E+00    0.0000000000E+00    0.0000000000E+00    0.0000000000E+00
    0.0000000000E+00    0.0000000000E+00    0.0000000000E+00    0.0000000000E+00
    0.0000000000E+00    0.0000000000E+00    0.0000000000E+00    0.0000000000E+00
    0.0000000000E+00    0.0000000000E+00    0.0000000000E+00    0.0000000000E+00
    0.0000000000E+00    0.0000000000E+00    0.0000000000E+00    0.0000000000E+00
    0.0000000000E+00    0.0000000000E+00    0.0000000000E+00    0.0000000000E+00
    0.0000000000E+00    0.0000000000E+00    0.0000000000E+00    0.0000000000E+00
    0.0000000000E+00    0.0000000000E+00    0.0000000000E+00    0.0000000000E+00
    0.0000000000E+00    0.0000000000E+00    0.0000000000E+00    0.0000000000E+00
    0.0000000000E+00    0.0000000000E+00    0.0000000000E+00    0.0000000000E+00
    0.0000000000E+00    0.0000000000E+00    0.0000000000E+00    0.0000000000E+00
    0.0000000000E+00    0.0000000000E+00    0.0000000000E+00    0.0000000000E+00
    0.0000000000E+00    0.0000000000E+00    0.0000000000E+00    0.0000000000E+00
    0.0000000000E+00    0.0000000000E+00    0.0000000000E+00    0.0000000000E+00
    0.0000000000E+00    0.0000000000E+00    0.0000000000E+00    0.0000000000E+00
    0.0000000000E+00    0.0000000000E+00    0.0000000000E+00    0.0000000000E+00
    0.0000000000E+00    0.0000000000E+00    0.0000000000E+00    0.0000000000E+00
    0.0000000000E+00    0.0000000000E+00    0.0000000000E+00    0.0000000000E+00
    0.0000000000E+00    0.0000000000E+00    0.0000000000E+00    0.0000000000E+00
    0.0000000000E+00    0.0000000000E+00    0.0000000000E+00    0.0000000000E+00
    0.0000000000E+00    0.0000000000E+00    0.0000000000E+00    0.0000000000E+00
    0.0000000000E+00    0.0000000000E+00    0.0000000000E+00    0.0000000000E+00
    0.0000000000E+00    0.0000000000E+00    0.0000000000E+00    0.0000000000E+00
    0.0000000000E+00    0.0000000000E+00    0.0000000000E+00    0.0000000000E+00
    0.0000000000E+00    0.0000000000E+00    0.0000000000E+00    0.0000000000E+00
    0.0000000000E+00    0.0000000000E+00    0.0000000000E+00    0.0000000000E+00
    0.0000000000E+00    0.0000000000E+00    0.0000000000E+00    0.0000000000E+00
    0.0000000000E+00    0.0000000000E+00    0.0000000000E+00    0.0000000000E+00
    0.0000000000E+00    0.0000000000E+00    0.0000000000E+00    0.0000000000E+00
    0.0000000000E+00    0.0000000000E+00    0.0000000000E+00    0.0000000000E+00
    0.0000000000E+00    0.0000000000E+00    0.0000000000E+00    0.0000000000E+00
    0.0000000000E+00    0.0000000000E+00    0.0000000000E+00    0.0000000000E+00
    0.0000000000E+00    0.0000000000E+00    0.0000000000E+00    0.0000000000E+00
    0.0000000000E+00    0.0000000000E+00    0.0000000000E+00    0.0000000000E+00
    0.0000000000E+00    0.0000000000E+00    0.0000000000E+00    0.0000000000E+00
    0.0000000000E+00    0.0000000000E+00    0.0000000000E+00    0.0000000000E+00
    0.0000000000E+00    0.0000000000E+00    0.0000000000E+00    0.0000000000E+00
    0.0000000000E+00    0.0000000000E+00    0.0000000000E+00    0.0000000000E+00
    0.0000000000E+00    0.0000000000E+00    0.0000000000E+00    0.0000000000E+00
    0.0000000000E+00    0.0000000000E+00    0.0000000000E+00    0.0000000000E+00
    0.0000000000E+00    0.0000000000E+00    0.0000000000E+00    0.0000000000E+00
    0.0000000000E+00    0.0000000000E+00    0.0000000000E+00    0.0000000000E+00
    0.0000000000E+00    0.0000000000E+00    0.0000000000E+00    0.0000000000E+00
 </PP_NLCC>
 <PP_RHOATOM type="real"  size="1288" columns="4">
    0.0000000000E+00    2.7632225509E-03    1.1081785730E-02    2.5042148113E-02
    4.4787647955E-02    7.0517366381E-02    1.0248454039E-01    1.4099453033E-01
    1.8640234810E-01    2.3910975368E-01    2.9956192982E-01    3.6824374621E-01
    4.4567562674E-01    5.3240903590E-01    6.2902160243E-01    7.3611190135E-01
    8.5429391805E-01    9.8419122114E-01    1.1264308737E+00    1.2816371160E+00
    1.4504248552E+00    1.6333930019E+00    1.8311176952E+00    2.0441454619E+00
    2.2729863577E+00    2.5181071422E+00    2.7799245391E+00    3.0587986381E+00
    3.3550264953E+00    3.6688359889E+00    4.0003799901E+00    4.3497309056E+00
    4.7168756527E+00    5.1017111204E+00    5.5040401732E+00    5.9235682493E+00
    6.3599006011E+00    6.8125402232E+00    7.2808865081E+00    7.7642346627E+00
    8.2617759152E+00    8.7725985327E+00    9.2956896661E+00    9.8299380260E+00
    1.0374137392E+01    1.0926990946E+01    1.1487116404E+01    1.2053051939E+01
    1.2623262839E+01    1.3196148872E+01    1.3770052306E+01    1.4343266520E+01
    1.4914045154E+01    1.5480611711E+01    1.6041169551E+01    1.6593912188E+01
    1.7137033800E+01    1.7668739875E+01    1.8187257904E+01    1.8690848008E+01
    1.9177813441E+01    1.9646510851E+01    2.0095360224E+01    2.0522854427E+01
    2.0927568258E+01    2.1308166937E+01    2.1663413966E+01    2.1992178283E+01
    2.2293440663E+01    2.2566299314E+01    2.2809974619E+01    2.3023813005E+01
    2.3207289888E+01    2.3360011712E+01    2.3481717044E+01    2.3572276747E+01
    2.3631693227E+01    2.3660098784E+01    2.3657753090E+01    2.3625039827E+01
    2.3562462526E+01    2.3470639665E+01    2.3350299068E+01    2.3202271671E+01
    2.3027484730E+01    2.2826954519E+01    2.2601778602E+01    2.2353127761E+01
    2.2082237633E+01    2.1790400151E+01    2.1478954862E+01    2.1149280184E+01
    2.0802784686E+01    2.0440898465E+01    2.0065064673E+01    1.9676731267E+01
    1.9277343042E+01    1.8868333993E+01    1.8451120065E+01    1.8027092327E+01
    1.7597610607E+01    1.7163997631E+01    1.6727533669E+01    1.6289451736E+01
    1.5850933336E+01    1.5413104766E+01    1.4977033992E+01    1.4543728067E+01
    1.4114131110E+01    1.3689122811E+01    1.3269517457E+01    1.2856063444E+01
    1.2449443259E+01    1.2050273902E+01    1.1659107708E+01    1.1276433545E+01
    1.0902678348E+01    1.0538208958E+01    1.0183334217E+01    9.8383073073E+00
    9.5033282682E+00    9.1785466840E+00    8.8640644904E+00    8.5599388763E+00
    8.2661852476E+00    7.9827802254E+00    7.7096646524E+00    7.4467465828E+00
    7.1939042343E+00    6.9509888833E+00    6.7178276853E+00    6.4942264072E+00
    6.2799720582E+00    6.0748354099E+00    5.8785733974E+00    5.6909313956E+00
    5.5116453699E+00    5.3404440160E+00    5.1770509228E+00    5.0211863502E+00
    4.8725687917E+00    4.7309163976E+00    4.5959482658E+00    4.4673856008E+00
    4.3449527485E+00    4.2283781120E+00    4.1173949533E+00    4.0117420889E+00
    3.9111644855E+00    3.8154137630E+00    3.7242486110E+00    3.6374351272E+00
    3.5547470828E+00    3.4759661234E+00    3.4008819101E+00    3.3292922073E+00
    3.2610029244E+00    3.1958281142E+00    3.1335899355E+00    3.0741185828E+00
    3.0172521888E+00    2.9628367024E+00    2.9107257462E+00    2.8607804577E+00
    2.8128693148E+00    2.7668679510E+00    2.7226589574E+00    2.6801315790E+00
    2.6391812286E+00    2.5997092468E+00    2.5616227560E+00    2.5248345107E+00
    2.4892627432E+00    2.4548310062E+00    2.4214680116E+00    2.3891074685E+00
    2.3576879179E+00    2.3271525671E+00    2.2974491222E+00    2.2685296211E+00
    2.2403502641E+00    2.2128712465E+00    2.1860565893E+00    2.1598739709E+00
    2.1342945594E+00    2.1092928445E+00    2.0848464554E+00    2.0609355188E+00
    2.0375412590E+00    2.0146456072E+00    1.9922311821E+00    1.9702812612E+00
    1.9487797561E+00    1.9277111896E+00    1.9070606723E+00    1.8868138813E+00
    1.8669570390E+00    1.8474768921E+00    1.8283606929E+00    1.8095961793E+00
    1.7911715575E+00    1.7730754836E+00    1.7552970468E+00    1.7378257534E+00
    1.7206515106E+00    1.7037646115E+00    1.6871557204E+00    1.6708158589E+00
    1.6547363922E+00    1.6389090163E+00    1.6233257451E+00    1.6079788986E+00
    1.5928610913E+00    1.5779652211E+00    1.5632844581E+00    1.5488122351E+00
    1.5345422369E+00    1.5204683911E+00    1.5065848591E+00    1.4928860268E+00
    1.4793664963E+00    1.4660210781E+00    1.4528447825E+00    1.4398328128E+00
    1.4269805572E+00    1.4142835827E+00    1.4017376274E+00    1.3893385949E+00
    1.3770825472E+00    1.3649656995E+00    1.3529844136E+00    1.3411351930E+00
    1.3294146769E+00    1.3178196360E+00    1.3063469658E+00    1.2949936833E+00
    1.2837569220E+00    1.2726339271E+00    1.2616220514E+00    1.2507187511E+00
    1.2399215819E+00    1.2292281951E+00    1.2186363337E+00    1.2081438291E+00
    1.1977485974E+00    1.1874486361E+00    1.1772420213E+00    1.1671269038E+00
    1.1571015069E+00    1.1471641231E+00    1.1373131115E+00    1.1275468951E+00
    1.1178639580E+00    1.1082628434E+00    1.0987421508E+00    1.0893005338E+00
    1.0799366980E+00    1.0706493988E+00    1.0614374394E+00    1.0522996687E+00
    1.0432349794E+00    1.0342423064E+00    1.0253206249E+00    1.0164689484E+00
    1.0076863277E+00    9.9897184877E-01    9.9032463153E-01    9.8174382832E-01
    9.7322862249E-01    9.6477822710E-01    9.5639188359E-01    9.4806886056E-01
    9.3980845257E-01    9.3160997903E-01    9.2347278302E-01    9.1539623034E-01
    9.0737970839E-01    8.9942262528E-01    8.9152440884E-01    8.8368450576E-01
    8.7590238069E-01    8.6817751545E-01    8.6050940821E-01    8.5289757275E-01
    8.4534153770E-01    8.3784084589E-01    8.3039505361E-01    8.2300373005E-01
    8.1566645660E-01    8.0838282632E-01    8.0115244335E-01    7.9397492236E-01
    7.8684988805E-01    7.7977697466E-01    7.7275582546E-01    7.6578609231E-01
    7.5886743526E-01    7.5199952208E-01    7.4518202788E-01    7.3841463475E-01
    7.3169703138E-01    7.2502891270E-01    7.1840997959E-01    7.1183993850E-01
    7.0531850120E-01    6.9884538447E-01    6.9242030982E-01    6.8604300326E-01
    6.7971319499E-01    6.7343061920E-01    6.6719501386E-01    6.6100612046E-01
    6.5486368383E-01    6.4876745193E-01    6.4271717568E-01    6.3671260876E-01
    6.3075350747E-01    6.2483963055E-01    6.1897073900E-01    6.1314659601E-01
    6.0736696676E-01    6.0163161830E-01    5.9594031944E-01    5.9029284064E-01
    5.8468895389E-01    5.7912843259E-01    5.7361105146E-01    5.6813658649E-01
    5.6270481479E-01    5.5731551452E-01    5.5196846485E-01    5.4666344586E-01
    5.4140023847E-01    5.3617862438E-01    5.3099838599E-01    5.2585930641E-01
    5.2076116930E-01    5.1570375894E-01    5.1068686009E-01    5.0571025798E-01
    5.0077373831E-01    4.9587708712E-01    4.9102009088E-01    4.8620253633E-01
    4.8142421059E-01    4.7668490106E-01    4.7198439526E-01    4.6732248102E-01
    4.6269894641E-01    4.5811357968E-01    4.5356616925E-01    4.4905650372E-01
    4.4458437186E-01    4.4014956255E-01    4.3575186485E-01    4.3139106790E-01
    4.2706696101E-01    4.2277933359E-01    4.1852797517E-01    4.1431267537E-01
    4.1013322397E-01    4.0598941083E-01    4.0188102593E-01    3.9780785937E-01
    3.9376970138E-01    3.8976634228E-01    3.8579757257E-01    3.8186318283E-01
    3.7796296382E-01    3.7409670643E-01    3.7026420169E-01    3.6646524082E-01
    3.6269961518E-01    3.5896711633E-01    3.5526753601E-01    3.5160066615E-01
    3.4796629891E-01    3.4436422663E-01    3.4079424191E-01    3.3725613757E-01
    3.3374970671E-01    3.3027474264E-01    3.2683103900E-01    3.2341838968E-01
    3.2003658888E-01    3.1668543110E-01    3.1336471117E-01    3.1007422426E-01
    3.0681376588E-01    3.0358313189E-01    3.0038211854E-01    2.9721052245E-01
    2.9406814066E-01    2.9095477058E-01    2.8787021009E-01    2.8481425747E-01
    2.8178671146E-01    2.7878737126E-01    2.7581603655E-01    2.7287250749E-01
    2.6995658473E-01    2.6706806944E-01    2.6420676331E-01    2.6137246856E-01
    2.5856498797E-01    2.5578412486E-01    2.5302968313E-01    2.5030146725E-01
    2.4759928231E-01    2.4492293397E-01    2.4227222853E-01    2.3964697290E-01
    2.3704697464E-01    2.3447204195E-01    2.3192198368E-01    2.2939660937E-01
    2.2689572922E-01    2.2441915412E-01    2.2196669568E-01    2.1953816617E-01
    2.1713337864E-01    2.1475214680E-01    2.1239428516E-01    2.1005960892E-01
    2.0774793406E-01    2.0545907732E-01    2.0319285620E-01    2.0094908898E-01
    1.9872759474E-01    1.9652819333E-01    1.9435070542E-01    1.9219495246E-01
    1.9006075675E-01    1.8794794139E-01    1.8585633031E-01    1.8378574827E-01
    1.8173602088E-01    1.7970697460E-01    1.7769843673E-01    1.7571023544E-01
    1.7374219975E-01    1.7179415957E-01    1.6986594565E-01    1.6795738966E-01
    1.6606832413E-01    1.6419858248E-01    1.6234799901E-01    1.6051640896E-01
    1.5870364842E-01    1.5690955441E-01    1.5513396487E-01    1.5337671862E-01
    1.5163765541E-01    1.4991661591E-01    1.4821344173E-01    1.4652797535E-01
    1.4486006024E-01    1.4320954074E-01    1.4157626217E-01    1.3996007075E-01
    1.3836081364E-01    1.3677833896E-01    1.3521249574E-01    1.3366313395E-01
    1.3213010453E-01    1.3061325933E-01    1.2911245115E-01    1.2762753376E-01
    1.2615836183E-01    1.2470479101E-01    1.2326667788E-01    1.2184387997E-01
    1.2043625576E-01    1.1904366467E-01    1.1766596706E-01    1.1630302425E-01
    1.1495469849E-01    1.1362085299E-01    1.1230135190E-01    1.1099606030E-01
    1.0970484423E-01    1.0842757065E-01    1.0716410749E-01    1.0591432360E-01
    1.0467808876E-01    1.0345527372E-01    1.0224575012E-01    1.0104939056E-01
    9.9866068582E-02    9.8695658632E-02    9.7538036100E-02    9.6393077295E-02
    9.5260659454E-02    9.4140660735E-02    9.3032960212E-02    9.1937437881E-02
    9.0853974648E-02    8.9782452335E-02    8.8722753670E-02    8.7674762290E-02
    8.6638362736E-02    8.5613440448E-02    8.4599881767E-02    8.3597573927E-02
    8.2606405056E-02    8.1626264168E-02    8.0657041168E-02    7.9698626838E-02
    7.8750912844E-02    7.7813791724E-02    7.6887156892E-02    7.5970902628E-02
    7.5064924081E-02    7.4169117258E-02    7.3283379026E-02    7.2407607108E-02
    7.1541700075E-02    7.0685557347E-02    6.9839079186E-02    6.9002166694E-02
    6.8174721809E-02    6.7356647297E-02    6.6547846756E-02    6.5748224603E-02
    6.4957686078E-02    6.4176137234E-02    6.3403484935E-02    6.2639636851E-02
    6.1884501457E-02    6.1137988024E-02    6.0400006618E-02    5.9670468094E-02
    5.8949284093E-02    5.8236367038E-02    5.7531630125E-02    5.6834987326E-02
    5.6146353378E-02    5.5465643785E-02    5.4792774806E-02    5.4127663455E-02
    5.3470227499E-02    5.2820385446E-02    5.2178056548E-02    5.1543160791E-02
    5.0915618896E-02    5.0295352307E-02    4.9682283193E-02    4.9076334440E-02
    4.8477429649E-02    4.7885493128E-02    4.7300449890E-02    4.6722225647E-02
    4.6150746806E-02    4.5585940463E-02    4.5027734404E-02    4.4476057090E-02
    4.3930837662E-02    4.3392005932E-02    4.2859492379E-02    4.2333228145E-02
    4.1813145027E-02    4.1299175479E-02    4.0791252601E-02    4.0289310136E-02
    3.9793282470E-02    3.9303104619E-02    3.8818712233E-02    3.8340041584E-02
    3.7867029566E-02    3.7399613690E-02    3.6937732078E-02    3.6481323458E-02
    3.6030327160E-02    3.5584683115E-02    3.5144331844E-02    3.4709214458E-02
    3.4279272651E-02    3.3854448699E-02    3.3434685450E-02    3.3019926324E-02
    3.2610115308E-02    3.2205196951E-02    3.1805116355E-02    3.1409819180E-02
    3.1019251632E-02    3.0633360459E-02    3.0252092952E-02    2.9875396935E-02
    2.9503220762E-02    2.9135513316E-02    2.8772223999E-02    2.8413302732E-02
    2.8058699949E-02    2.7708366595E-02    2.7362254117E-02    2.7020314465E-02
    2.6682500082E-02    2.6348763906E-02    2.6019059363E-02    2.5693340361E-02
    2.5371561288E-02    2.5053677009E-02    2.4739642858E-02    2.4429414638E-02
    2.4122948614E-02    2.3820201511E-02    2.3521130509E-02    2.3225693237E-02
    2.2933847775E-02    2.2645552642E-02    2.2360766799E-02    2.2079449641E-02
    2.1801560994E-02    2.1527061112E-02    2.1255910673E-02    2.0988070774E-02
    2.0723502927E-02    2.0462169059E-02    2.0204031502E-02    1.9949052994E-02
    1.9697196676E-02    1.9448426082E-02    1.9202705142E-02    1.8959998176E-02
    1.8720269889E-02    1.8483485370E-02    1.8249610085E-02    1.8018609878E-02
    1.7790450963E-02    1.7565099923E-02    1.7342523705E-02    1.7122689619E-02
    1.6905565332E-02    1.6691118865E-02    1.6479318592E-02    1.6270133233E-02
    1.6063531854E-02    1.5859483859E-02    1.5657958994E-02    1.5458927336E-02
    1.5262359296E-02    1.5068225610E-02    1.4876497342E-02    1.4687145876E-02
    1.4500142913E-02    1.4315460473E-02    1.4133070884E-02    1.3952946787E-02
    1.3775061126E-02    1.3599387149E-02    1.3425898406E-02    1.3254568740E-02
    1.3085372292E-02    1.2918283490E-02    1.2753277054E-02    1.2590327988E-02
    1.2429411576E-02    1.2270503384E-02    1.2113579254E-02    1.1958615301E-02
    1.1805587913E-02    1.1654473745E-02    1.1505249716E-02    1.1357893010E-02
    1.1212381071E-02    1.1068691599E-02    1.0926802550E-02    1.0786692130E-02
    1.0648338798E-02    1.0511721257E-02    1.0376818455E-02    1.0243609583E-02
    1.0112074070E-02    9.9821915812E-03    9.8539420180E-03    9.7273055121E-03
    9.6022624251E-03    9.4787933457E-03    9.3568790867E-03    9.2365006835E-03
    9.1176393911E-03    9.0002766822E-03    8.8843942444E-03    8.7699739784E-03
    8.6569979956E-03    8.5454486155E-03    8.4353083639E-03    8.3265599705E-03
    8.2191863669E-03    8.1131706839E-03    8.0084962500E-03    7.9051465890E-03
    7.8031054177E-03    7.7023566441E-03    7.6028843651E-03    7.5046728647E-03
    7.4077066118E-03    7.3119702580E-03    7.2174486362E-03    7.1241267577E-03
    7.0319898114E-03    6.9410231606E-03    6.8512123423E-03    6.7625430642E-03
    6.6750012037E-03    6.5885728055E-03    6.5032440799E-03    6.4190014009E-03
    6.3358313048E-03    6.2537204876E-03    6.1726558040E-03    6.0926242653E-03
    6.0136130376E-03    5.9356094401E-03    5.8586009437E-03    5.7825751688E-03
    5.7075198840E-03    5.6334230042E-03    5.5602725893E-03    5.4880568421E-03
    5.4167641072E-03    5.3463828689E-03    5.2769017499E-03    5.2083095100E-03
    5.1405950438E-03    5.0737473799E-03    5.0077556791E-03    4.9426092329E-03
    4.8782974619E-03    4.8148099146E-03    4.7521362658E-03    4.6902663151E-03
    4.6291899854E-03    4.5688973220E-03    4.5093784904E-03    4.4506237757E-03
    4.3926235805E-03    4.3353684244E-03    4.2788489418E-03    4.2230558811E-03
    4.1679801033E-03    4.1136125805E-03    4.0599443949E-03    4.0069667375E-03
    3.9546709065E-03    3.9030483064E-03    3.8520904467E-03    3.8017889406E-03
    3.7521355039E-03    3.7031219537E-03    3.6547402073E-03    3.6069822810E-03
    3.5598402889E-03    3.5133064420E-03    3.4673730466E-03    3.4220325036E-03
    3.3772773074E-03    3.3331000444E-03    3.2894933923E-03    3.2464501190E-03
    3.2039630814E-03    3.1620252242E-03    3.1206295794E-03    3.0797692647E-03
    3.0394374829E-03    2.9996275206E-03    2.9603327474E-03    2.9215466148E-03
    2.8832626554E-03    2.8454744817E-03    2.8081757855E-03    2.7713603364E-03
    2.7350219814E-03    2.6991546439E-03    2.6637523226E-03    2.6288090906E-03
    2.5943190948E-03    2.5602765545E-03    2.5266757613E-03    2.4935110774E-03
    2.4607769355E-03    2.4284678372E-03    2.3965783531E-03    2.3651031210E-03
    2.3340368458E-03    2.3033742984E-03    2.2731103149E-03    2.2432397961E-03
    2.2137577061E-03    2.1846590723E-03    2.1559389841E-03    2.1275925923E-03
    2.0996151086E-03    2.0720018043E-03    2.0447480103E-03    2.0178491158E-03
    1.9913005677E-03    1.9650978704E-03    1.9392365842E-03    1.9137123256E-03
    1.8885207658E-03    1.8636576306E-03    1.8391186996E-03    1.8148998051E-03
    1.7909968321E-03    1.7674057175E-03    1.7441224492E-03    1.7211430655E-03
    1.6984636549E-03    1.6760803550E-03    1.6539893522E-03    1.6321868811E-03
    1.6106692236E-03    1.5894327088E-03    1.5684737120E-03    1.5477886543E-03
    1.5273740022E-03    1.5072262666E-03    1.4873420029E-03    1.4677178099E-03
    1.4483503293E-03    1.4292362457E-03    1.4103722855E-03    1.3917552166E-03
    1.3733818478E-03    1.3552490285E-03    1.3373536481E-03    1.3196926355E-03
    1.3022629584E-03    1.2850616232E-03    1.2680856744E-03    1.2513321938E-03
    1.2347983005E-03    1.2184811503E-03    1.2023779351E-03    1.1864858825E-03
    1.1708022555E-03    1.1553243519E-03    1.1400495039E-03    1.1249750779E-03
    1.1100984737E-03    1.0954171243E-03    1.0809284954E-03    1.0666300852E-03
    1.0525194237E-03    1.0385940725E-03    1.0248516244E-03    1.0112897030E-03
    9.9790596195E-04    9.8469808535E-04    9.7166378668E-04    9.5880080873E-04
    9.4610692318E-04    9.3357993025E-04    9.2121765832E-04    9.0901796361E-04
    8.9697872980E-04    8.8509786771E-04    8.7337331495E-04    8.6180303557E-04
    8.5038501976E-04    8.3911728351E-04    8.2799786826E-04    8.1702484063E-04
    8.0619629204E-04    7.9551033847E-04    7.8496512010E-04    7.7455880102E-04
    7.6428956894E-04    7.5415563486E-04    7.4415523283E-04    7.3428661962E-04
    7.2454807443E-04    7.1493789863E-04    7.0545441548E-04    6.9609596983E-04
    6.8686092788E-04    6.7774767687E-04    6.6875462485E-04    6.5988020040E-04
    6.5112285239E-04    6.4248104969E-04    6.3395328094E-04    6.2553805429E-04
    6.1723389717E-04    6.0903935601E-04    6.0095299606E-04    5.9297340108E-04
    5.8509917315E-04    5.7732893243E-04    5.6966131693E-04    5.6209498227E-04
    5.5462860148E-04    5.4726086476E-04    5.3999047926E-04    5.3281616888E-04
    5.2573667406E-04    5.1875075154E-04    5.1185717418E-04    5.0505473075E-04
    4.9834222571E-04    4.9171847904E-04    4.8518232602E-04    4.7873261703E-04
    4.7236821739E-04    4.6608800712E-04    4.5989088081E-04    4.5377574738E-04
    4.4774152993E-04    4.4178716555E-04    4.3591160515E-04    4.3011381326E-04
    4.2439276788E-04    4.1874746028E-04    4.1317689487E-04    4.0768008901E-04
    4.0225607283E-04    3.9690388909E-04    3.9162259300E-04    3.8641125208E-04
    3.8126894599E-04    3.7619476637E-04    3.7118781669E-04    3.6624721211E-04
    3.6137207932E-04    3.5656155638E-04    3.5181479261E-04    3.4713094839E-04
    3.4250919507E-04    3.3794871482E-04    3.3344870045E-04    3.2900835532E-04
    3.2462689318E-04    3.2030353806E-04    3.1603752411E-04    3.1182809546E-04
    3.0767450615E-04    3.0357601995E-04    2.9953191023E-04    2.9554145987E-04
    2.9160396115E-04    2.8771871555E-04    2.8388503371E-04    2.8010223530E-04
    2.7636964886E-04    2.7268661173E-04    2.6905246991E-04    2.6546657798E-04
    2.6192829893E-04    2.5843700412E-04    2.5499207314E-04    2.5159289368E-04
    2.4823886148E-04    2.4492938016E-04    2.4166386119E-04    2.3844172374E-04
    2.3526239457E-04    2.3212530798E-04    2.2902990568E-04    2.2597563669E-04
    2.2296195727E-04    2.1998833080E-04    2.1705422771E-04    2.1415912536E-04
    2.1130250800E-04    2.0848386662E-04    2.0570269889E-04    2.0295850910E-04
    2.0025080802E-04    1.9757911287E-04    1.9494294720E-04    1.9234184081E-04
    1.8977532968E-04    1.8724295591E-04    1.8474426758E-04    1.8227881874E-04
    1.7984616928E-04    1.7744588491E-04    1.7507753701E-04    1.7274070261E-04
    1.7043496432E-04    1.6815991023E-04    1.6591513384E-04    1.6370023401E-04
    1.6151481487E-04    1.5935848577E-04    1.5723086120E-04    1.5513156071E-04
    1.5306020889E-04    1.5101643524E-04    1.4899987417E-04    1.4701016488E-04
    1.4504695134E-04    1.4310988220E-04    1.4119861075E-04    1.3931279484E-04
    1.3745209683E-04    1.3561618354E-04    1.3380472617E-04    1.3201740027E-04
    1.3025388566E-04    1.2851386638E-04    1.2679703063E-04    1.2510307075E-04
    1.2343168311E-04    1.2178256811E-04    1.2015543009E-04    1.1854997729E-04
    1.1696592180E-04    1.1540297953E-04    1.1386087011E-04    1.1233931691E-04
    1.1083804691E-04    1.0935679073E-04    1.0789528254E-04    1.0645326000E-04
    1.0503046427E-04    1.0362663990E-04    1.0224153484E-04    1.0087490035E-04
    9.9526490993E-05    9.8196064565E-05    9.6883382071E-05    9.5588207673E-05
    9.4310308654E-05    9.3049455372E-05    9.1805421221E-05    9.0577982595E-05
    8.9366918846E-05    8.8172012241E-05    8.6993047932E-05    8.5829813913E-05
    8.4682100981E-05    8.3549702704E-05    8.2432415383E-05    8.1330038013E-05
    8.0242372252E-05    7.9169222382E-05    7.8110395278E-05    7.7065700373E-05
    7.6034949623E-05    7.5017957473E-05    7.4014540827E-05    7.3024519017E-05
    7.2047713764E-05    7.1083949154E-05    7.0133051605E-05    6.9194849831E-05
    6.8269174821E-05    6.7355859801E-05    6.6454740209E-05    6.5565653664E-05
    6.4688439937E-05    6.3822940926E-05    6.2969000623E-05    6.2126465089E-05
    6.1295182429E-05    6.0475002760E-05    5.9665778188E-05    5.8867362781E-05
    5.8079612544E-05    5.7302385390E-05    5.6535541120E-05    5.5778941395E-05
    5.5032449709E-05    5.4295931373E-05    5.3569253480E-05    5.2852284892E-05
    5.2144896209E-05    5.1446959750E-05    5.0758349529E-05    5.0078941233E-05
    4.9408612201E-05    4.8747241398E-05    4.8094709399E-05    4.7450898366E-05
    4.6815692023E-05    4.6188975641E-05    4.5570636015E-05    4.4960561444E-05
    4.4358641711E-05    4.3764768063E-05    4.3178833194E-05    4.2600731222E-05
    4.2030357674E-05    4.1467609464E-05    4.0912384878E-05    4.0364583554E-05
    3.9824106462E-05    3.9290855892E-05    3.8764735430E-05    3.8245649947E-05
    3.7733505578E-05    3.7228209705E-05    3.6729670943E-05    3.6237799122E-05
    3.5752505273E-05    3.5273701609E-05    3.4801301511E-05    3.4335219512E-05
    3.3875371285E-05    3.3421673620E-05    3.2974044419E-05    3.2532402675E-05
    3.2096668457E-05    3.1666762901E-05    3.1242608192E-05    3.0824127548E-05
    3.0411245213E-05    3.0003886437E-05    2.9601977466E-05    2.9205445528E-05
    2.8814218820E-05    2.8428226495E-05    2.8047398650E-05    2.7671666311E-05
    2.7300961424E-05    2.6935216842E-05    2.6574366313E-05    2.6218344463E-05
    2.5867086795E-05    2.5520529667E-05    2.5178610287E-05    2.4841266697E-05
    2.4508437768E-05    2.4180063183E-05    2.3856083429E-05    2.3536439788E-05
    2.3221074323E-05    2.2909929868E-05    2.2602950021E-05    2.2300079131E-05
    2.2001262289E-05    2.1706445317E-05    2.1415574761E-05    2.1128597878E-05
    2.0845462628E-05    2.0566117668E-05    2.0290512335E-05    2.0018596644E-05
    1.9750321278E-05    1.9485637574E-05    1.9224497522E-05    1.8966853748E-05
    1.8712659514E-05    1.8461868702E-05    1.8214435812E-05    1.7970315948E-05
    1.7729464817E-05    1.7491838712E-05    1.7257394512E-05    1.7026089672E-05
    1.6797882212E-05    1.6572730714E-05    1.6350594313E-05    1.6131432688E-05
    1.5915206057E-05    1.5701875167E-05    1.5491401293E-05    1.5283746222E-05
    1.5078872253E-05    1.4876742191E-05    1.4677319333E-05    1.4480567468E-05
    1.4286450868E-05    1.4094934284E-05    1.3905982933E-05    1.3719562502E-05
    1.3535639132E-05    1.3354179417E-05    1.3175150398E-05    1.2998519555E-05
    1.2824254803E-05    1.2652324486E-05    1.2482697370E-05    1.2315342637E-05
    1.2150229882E-05    1.1987329106E-05    1.1826610711E-05    1.1668045493E-05
    1.1511604639E-05    1.1357259722E-05    1.1204982692E-05    1.1054745876E-05
    1.0906521970E-05    1.0760284035E-05    1.0616005491E-05    1.0473660114E-05
    1.0333222030E-05    1.0194665711E-05    1.0057965970E-05    9.9230979567E-06
    9.7900371528E-06    9.6587593673E-06    9.5292407331E-06    9.4014577015E-06
    9.2753870389E-06    9.1510058220E-06    9.0282914342E-06    8.9072215608E-06
    8.7877741856E-06    8.6699275867E-06    8.5536603325E-06    8.4389512780E-06
    8.3257795607E-06    8.2141245971E-06    8.1039660790E-06    7.9952839695E-06
    7.8880584996E-06    7.7822701649E-06    7.6778997215E-06    7.5749281830E-06
    7.4733368167E-06    7.3731071405E-06    7.2742209194E-06    7.1766601624E-06
    7.0804071189E-06    6.9854442758E-06    6.8917543542E-06    6.7993203062E-06
    6.7081253122E-06    6.6181527771E-06    6.5293863282E-06    6.4418098116E-06
    6.3554072894E-06    6.2701630371E-06    6.1860615404E-06    6.1030874925E-06
    6.0212257916E-06    5.9404615377E-06    5.8607800301E-06    5.7821667650E-06
    5.7046074325E-06    5.6280879142E-06    5.5525942806E-06    5.4781127885E-06
    5.4046298787E-06    5.3321321733E-06    5.2606064736E-06    5.1900397574E-06
    5.1204191767E-06    5.0517320555E-06    4.9839658875E-06    4.9171083336E-06
    4.8511472200E-06    4.7860705357E-06    4.7218664305E-06    4.6585232129E-06
    4.5960293477E-06    4.5343734542E-06    4.4735443040E-06    4.4135308190E-06
    4.3543220694E-06    4.2959072716E-06    4.2382757866E-06    4.1814171175E-06
    4.1253209082E-06    4.0699769409E-06    4.0153751350E-06    3.9615055446E-06
    3.9083583569E-06    3.8559238907E-06    3.8041925941E-06    3.7531550435E-06
    3.7028019410E-06    3.6531241137E-06    3.6041125110E-06    3.5557582039E-06
    3.5080523826E-06    3.4609863557E-06    3.4145515478E-06    3.3687394985E-06
    3.3235418606E-06    3.2789503989E-06    3.2349569881E-06    3.1915536121E-06
    3.1487323619E-06    3.1064854345E-06    3.0648051315E-06    3.0236838574E-06
    2.9831141186E-06    2.9430885218E-06    2.9035997726E-06    2.8646406746E-06
    2.8262041274E-06    2.7882831261E-06    2.7508707593E-06    2.7139602084E-06
 </PP_RHOATOM>
 <PP_TAUMOD type="real"  size="1288" columns="4">
    1.2059934363E+02    1.2055345777E+02    1.2041587641E+02    1.2018682813E+02
    1.1986669351E+02    1.1945600456E+02    1.1895544388E+02    1.1836584370E+02
    1.1768818454E+02    1.1692359374E+02    1.1607334377E+02    1.1513885020E+02
    1.1412166960E+02    1.1302349705E+02    1.1184616355E+02    1.1059163308E+02
    1.0926199958E+02    1.0785948354E+02    1.0638642848E+02    1.0484529710E+02
    1.0323866733E+02    1.0156922801E+02    9.9839774432E+01    9.8053203611E+01
    9.6212509351E+01    9.4320777061E+01    9.2381178348E+01    9.0396965382E+01
    8.8371465029E+01    8.6308072752E+01    8.4210246287E+01    8.2081499084E+01
    7.9925393520E+01    7.7745533882E+01    7.5545559118E+01    7.3329135363E+01
    7.1099948229E+01    6.8861694867E+01    6.6618075802E+01    6.4372786532E+01
    6.2129508901E+01    5.9891902246E+01    5.7663594299E+01    5.5448171879E+01
    5.3249171339E+01    5.1070068787E+01    4.8914270080E+01    4.6785100587E+01
    4.4685794715E+01    4.2619485216E+01    4.0589192257E+01    3.8597812260E+01
    3.6648106514E+01    3.4742689556E+01    3.2884017323E+01    3.1074375073E+01
    2.9315865075E+01    2.7610394070E+01    2.5959660504E+01    2.4365141524E+01
    2.2828079755E+01    2.1349469834E+01    1.9930044728E+01    1.8570261807E+01
    1.7270288698E+01    1.6029988907E+01    1.4848907205E+01    1.3726254792E+01
    1.2660894225E+01    1.1651324119E+01    1.0695663615E+01    9.7916366283E+00
    8.9365791861E+00    8.1277630248E+00    7.3627711394E+00    6.6394829171E+00
    5.9560191668E+00    5.3106980807E+00    4.7019996754E+00    4.1285367337E+00
    3.5890307057E+00    3.0822914253E+00    2.6071998403E+00    2.1626932315E+00
    1.7477525940E+00    1.3613919759E+00    1.0026496204E+00    6.7058077599E-01
    3.6425202233E-01    8.2736946381E-02   -1.7488700713E-01   -4.0954068650E-01
   -6.2214454932E-01   -8.1361929099E-01   -9.8488591054E-01   -1.1368653186E+00
   -1.2704775731E+00   -1.3866408134E+00   -1.4862699518E+00   -1.5702751716E+00
   -1.6395602757E+00   -1.6950209238E+00   -1.7375427935E+00   -1.7679996958E+00
   -1.7872516763E+00   -1.7961431278E+00   -1.7955009384E+00   -1.7861326990E+00
   -1.7688249888E+00   -1.7443417567E+00   -1.7134228137E+00   -1.6767824480E+00
   -1.6351081714E+00   -1.5890596073E+00   -1.5392675227E+00   -1.4863330081E+00
   -1.4308268016E+00   -1.3732887554E+00   -1.3142274368E+00   -1.2541198567E+00
   -1.1934113153E+00   -1.1325153545E+00   -1.0718138030E+00   -1.0116569019E+00
   -9.5236349530E-01   -8.9422127059E-01   -8.3748703340E-01   -7.8238700031E-01
   -7.2911709399E-01   -6.7784322465E-01   -6.2870154259E-01   -5.8179864692E-01
   -5.3721173666E-01   -4.9498869076E-01   -4.5514806523E-01   -4.1767899631E-01
   -3.8254105117E-01   -3.4966878264E-01   -3.1898619988E-01   -2.9041215519E-01
   -2.6386146161E-01   -2.3924589495E-01   -2.1647512172E-01   -1.9545755111E-01
   -1.7610111022E-01   -1.5831394305E-01   -1.4200503397E-01   -1.2708475774E-01
   -1.1346535828E-01   -1.0106135918E-01   -8.9789909389E-02   -7.9571067790E-02
   -7.0328030745E-02   -6.1987306826E-02   -5.4478843133E-02   -4.7736107609E-02
   -4.1696131784E-02   -3.6299518299E-02   -3.1490417451E-02   -2.7216476855E-02
   -2.3428768107E-02   -2.0081694117E-02   -1.7132880565E-02   -1.4543054621E-02
   -1.2275913859E-02   -1.0297988059E-02   -8.5785481791E-03   -7.0904246427E-03
   -5.8095658096E-03   -4.7138550266E-03   -3.7829558238E-03   -2.9981987748E-03
   -2.3424708284E-03   -1.8001079639E-03   -1.3567919042E-03   -9.9945146977E-04
   -7.1616901250E-04   -4.9609224747E-04   -3.2935168727E-04   -2.0698378750E-04
   -1.2085982786E-04   -6.3620480752E-05   -2.8615958270E-05   -9.8515768162E-06
   -1.9382925012E-06   -5.0323065735E-08    6.4776955415E-11    2.6153345566E-10
    1.0181845737E-10    8.5076230568E-11    7.1083493741E-11    5.9382144824E-11
    4.9599504384E-11    4.1418379434E-11    3.4579260730E-11    2.8864128511E-11
    2.4087019409E-11    2.0102273976E-11    1.6779682905E-11    1.4013085709E-11
    1.1713901155E-11    9.8080609497E-12    8.2328748455E-12    6.9354714982E-12
    5.8711263934E-12    5.0014221083E-12    4.2969776142E-12    3.7288785652E-12
    3.2742436706E-12    2.9136236310E-12    2.6324837649E-12    2.4128955575E-12
    2.2463817600E-12    2.1215183187E-12    2.0283453966E-12    1.9615124222E-12
    1.9137904391E-12    1.8806074469E-12    1.8572381112E-12    1.8404870160E-12
    1.8271269319E-12    1.8159458513E-12    1.8035946174E-12    1.7899038115E-12
    1.7731930100E-12    1.7531017644E-12    1.7290510117E-12    1.7003204609E-12
    1.6672169243E-12    1.6268329152E-12    1.5799453321E-12    1.5232090733E-12
    1.4557293168E-12    1.3770665489E-12    1.2870729240E-12    1.1865851286E-12
    1.0771565521E-12    9.6143954518E-13    8.4238343980E-13    7.2330088504E-13
    6.0768593959E-13    4.9841677744E-13    3.9824116336E-13    3.0939688103E-13
    2.3276738386E-13    1.6903471445E-13    1.1803209684E-13    7.8772322245E-14
    4.9886427177E-14    2.9773438669E-14    1.6595278458E-14    8.5969561745E-15
    4.1572981673E-15    1.9684309384E-15    1.0294562993E-15    6.7547734225E-16
    5.3372641125E-16    4.4647232854E-16    3.7496723396E-16    3.1496454199E-16
    2.6458461244E-16    2.2228417381E-16    1.8676494318E-16    1.5693674968E-16
    1.3188519408E-16    1.1084322340E-16    9.3167316631E-17    7.8317530862E-17
    6.5840780554E-17    5.5356824205E-17    4.6546518804E-17    3.9141973788E-17
    3.2918296484E-17    2.7686670961E-17    2.3288554249E-17    1.9590808962E-17
    1.6481620797E-17    1.3867073979E-17    1.1668278268E-17    9.8189584716E-18
    8.2634317328E-18    6.9549100692E-18    5.8540756970E-18    4.9278851733E-18
    4.1485655082E-18    3.4927713302E-18    2.9408772033E-18    2.4763833597E-18
    2.0854166214E-18    1.7563112196E-18    1.4792566894E-18    1.2460020721E-18
    1.0496074015E-18    8.8423489197E-19    7.4497347063E-19    6.2769131419E-19
    5.2891190931E-19    4.4570987483E-19    3.7562338548E-19    3.1658054616E-19
    2.6683748807E-19    2.2492631606E-19    1.8961133557E-19    1.5985223885E-19
    1.3477314142E-19    1.1363653685E-19    9.5821386645E-20    8.0804687147E-20
    6.8145960503E-20    5.7474204613E-20    4.8476911347E-20    4.0890824463E-20
    3.4494160982E-20    2.9100063778E-20    2.4551090046E-20    2.0714571407E-20
    1.7478707485E-20    1.4749276754E-20    1.2446866910E-20    1.0504542526E-20
    8.8658807929E-21    7.4833171455E-21    6.3167517684E-21    5.3323757640E-21
    4.5016822797E-21    3.8006333911E-21    3.2089581561E-21    2.7095611463E-21
    2.2880240314E-21    1.9321855477E-21    1.6317874974E-21    1.3781763797E-21
    1.1640518905E-21    9.8325491659E-22    8.3058880846E-22    7.0166869787E-22
    5.9279445131E-22    5.0084354441E-22    4.2318072760E-22    3.5758184609E-22
    3.0216959204E-22    2.5535931651E-22    2.1581332282E-22    1.8240231163E-22
    1.5417285627E-22    1.3031996367E-22    1.1016392397E-22    9.3130777421E-23
    7.8735832259E-23    6.6569756080E-23    5.6286838237E-23    4.7595083696E-23
    4.0247852087E-23    3.4036800495E-23    2.8785926309E-23    2.4346538331E-23
    2.0593011284E-23    1.7419201428E-23    1.4735420166E-23    1.2465878618E-23
    1.0546529735E-23    8.9232460127E-24    7.5502805029E-24    6.3889670157E-24
    5.4066222646E-24    4.5756185276E-24    3.8726002931E-24    3.2778224919E-24
    2.7745914264E-24    2.3487924025E-24    1.9884906240E-24    1.6835939518E-24
    1.4255679257E-24    1.2071949356E-24    1.0223706890E-24    8.6593219184E-25
    7.3351235166E-25    6.2141707810E-25    5.2652139569E-25    4.4618161577E-25
    3.7816108847E-25    3.2056742768E-25    2.7179943377E-25    2.3050221353E-25
    1.9552922916E-25    1.6591020455E-25    1.4082398435E-25    1.1971723033E-25
    1.0024860763E-25    9.1353263299E-26    6.1780633389E-26   -1.4364863245E-27
   -1.0882588612E-27    1.4358215603E-27    1.7683617932E-28    2.9490194623E-28
    2.4707266377E-28    2.0701206937E-28    1.7345650826E-28    1.4534816809E-28
    1.2180150150E-28    1.0207513045E-28    8.5548341841E-29    7.1701420054E-29
    6.0099189730E-29    5.0377244005E-29    4.2230420137E-29    3.5403153160E-29
    2.9681403451E-29    2.4885899793E-29    2.0866483432E-29    1.7497373796E-29
    1.4673204936E-29    1.2305707301E-29    1.0320929791E-29    8.6569137675E-30
    7.2617454976E-30    6.0919253720E-30    5.1110020837E-30    4.2884289843E-30
    3.5986062251E-30    3.0200785240E-30    2.5348632393E-30    2.1278874482E-30
    1.7865164812E-30    1.5001589325E-30    1.2599357748E-30    1.0584031109E-30
    8.8931987024E-31    7.4745318334E-31    6.2841528157E-31    5.2910427831E-31
    4.4027308682E-31    3.8175229856E-31    3.2738930581E-31    9.5593169522E-32
   -3.0032400737E-32    4.3300824595E-33    8.6761813401E-34   -5.8247926226E-34
    0.0000000000E+00    0.0000000000E+00    0.0000000000E+00    0.0000000000E+00
    0.0000000000E+00    0.0000000000E+00    0.0000000000E+00    0.0000000000E+00
    0.0000000000E+00    0.0000000000E+00    0.0000000000E+00    0.0000000000E+00
    0.0000000000E+00    0.0000000000E+00    0.0000000000E+00    0.0000000000E+00
    0.0000000000E+00    0.0000000000E+00    0.0000000000E+00    0.0000000000E+00
    0.0000000000E+00    0.0000000000E+00    0.0000000000E+00    0.0000000000E+00
    0.0000000000E+00    0.0000000000E+00    0.0000000000E+00    0.0000000000E+00
    0.0000000000E+00    0.0000000000E+00    0.0000000000E+00    0.0000000000E+00
    0.0000000000E+00    0.0000000000E+00    0.0000000000E+00    0.0000000000E+00
    0.0000000000E+00    0.0000000000E+00    0.0000000000E+00    0.0000000000E+00
    0.0000000000E+00    0.0000000000E+00    0.0000000000E+00    0.0000000000E+00
    0.0000000000E+00    0.0000000000E+00    0.0000000000E+00    0.0000000000E+00
    0.0000000000E+00    0.0000000000E+00    0.0000000000E+00    0.0000000000E+00
    0.0000000000E+00    0.0000000000E+00    0.0000000000E+00    0.0000000000E+00
    0.0000000000E+00    0.0000000000E+00    0.0000000000E+00    0.0000000000E+00
    0.0000000000E+00    0.0000000000E+00    0.0000000000E+00    0.0000000000E+00
    0.0000000000E+00    0.0000000000E+00    0.0000000000E+00    0.0000000000E+00
    0.0000000000E+00    0.0000000000E+00    0.0000000000E+00    0.0000000000E+00
    0.0000000000E+00    0.0000000000E+00    0.0000000000E+00    0.0000000000E+00
    0.0000000000E+00    0.0000000000E+00    0.0000000000E+00    0.0000000000E+00
    0.0000000000E+00    0.0000000000E+00    0.0000000000E+00    0.0000000000E+00
    0.0000000000E+00    0.0000000000E+00    0.0000000000E+00    0.0000000000E+00
    0.0000000000E+00    0.0000000000E+00    0.0000000000E+00    0.0000000000E+00
    0.0000000000E+00    0.0000000000E+00    0.0000000000E+00    0.0000000000E+00
    0.0000000000E+00    0.0000000000E+00    0.0000000000E+00    0.0000000000E+00
    0.0000000000E+00    0.0000000000E+00    0.0000000000E+00    0.0000000000E+00
    0.0000000000E+00    0.0000000000E+00    0.0000000000E+00    0.0000000000E+00
    0.0000000000E+00    0.0000000000E+00    0.0000000000E+00    0.0000000000E+00
    0.0000000000E+00    0.0000000000E+00    0.0000000000E+00    0.0000000000E+00
    0.0000000000E+00    0.0000000000E+00    0.0000000000E+00    0.0000000000E+00
    0.0000000000E+00    0.0000000000E+00    0.0000000000E+00    0.0000000000E+00
    0.0000000000E+00    0.0000000000E+00    0.0000000000E+00    0.0000000000E+00
    0.0000000000E+00    0.0000000000E+00    0.0000000000E+00    0.0000000000E+00
    0.0000000000E+00    0.0000000000E+00    0.0000000000E+00    0.0000000000E+00
    0.0000000000E+00    0.0000000000E+00    0.0000000000E+00    0.0000000000E+00
    0.0000000000E+00    0.0000000000E+00    0.0000000000E+00    0.0000000000E+00
    0.0000000000E+00    0.0000000000E+00    0.0000000000E+00    0.0000000000E+00
    0.0000000000E+00    0.0000000000E+00    0.0000000000E+00    0.0000000000E+00
    0.0000000000E+00    0.0000000000E+00    0.0000000000E+00    0.0000000000E+00
    0.0000000000E+00    0.0000000000E+00    0.0000000000E+00    0.0000000000E+00
    0.0000000000E+00    0.0000000000E+00    0.0000000000E+00    0.0000000000E+00
    0.0000000000E+00    0.0000000000E+00    0.0000000000E+00    0.0000000000E+00
    0.0000000000E+00    0.0000000000E+00    0.0000000000E+00    0.0000000000E+00
    0.0000000000E+00    0.0000000000E+00    0.0000000000E+00    0.0000000000E+00
    0.0000000000E+00    0.0000000000E+00    0.0000000000E+00    0.0000000000E+00
    0.0000000000E+00    0.0000000000E+00    0.0000000000E+00    0.0000000000E+00
    0.0000000000E+00    0.0000000000E+00    0.0000000000E+00    0.0000000000E+00
    0.0000000000E+00    0.0000000000E+00    0.0000000000E+00    0.0000000000E+00
    0.0000000000E+00    0.0000000000E+00    0.0000000000E+00    0.0000000000E+00
    0.0000000000E+00    0.0000000000E+00    0.0000000000E+00    0.0000000000E+00
    0.0000000000E+00    0.0000000000E+00    0.0000000000E+00    0.0000000000E+00
    0.0000000000E+00    0.0000000000E+00    0.0000000000E+00    0.0000000000E+00
    0.0000000000E+00    0.0000000000E+00    0.0000000000E+00    0.0000000000E+00
    0.0000000000E+00    0.0000000000E+00    0.0000000000E+00    0.0000000000E+00
    0.0000000000E+00    0.0000000000E+00    0.0000000000E+00    0.0000000000E+00
    0.0000000000E+00    0.0000000000E+00    0.0000000000E+00    0.0000000000E+00
    0.0000000000E+00    0.0000000000E+00    0.0000000000E+00    0.0000000000E+00
    0.0000000000E+00    0.0000000000E+00    0.0000000000E+00    0.0000000000E+00
    0.0000000000E+00    0.0000000000E+00    0.0000000000E+00    0.0000000000E+00
    0.0000000000E+00    0.0000000000E+00    0.0000000000E+00    0.0000000000E+00
    0.0000000000E+00    0.0000000000E+00    0.0000000000E+00    0.0000000000E+00
    0.0000000000E+00    0.0000000000E+00    0.0000000000E+00    0.0000000000E+00
    0.0000000000E+00    0.0000000000E+00    0.0000000000E+00    0.0000000000E+00
    0.0000000000E+00    0.0000000000E+00    0.0000000000E+00    0.0000000000E+00
    0.0000000000E+00    0.0000000000E+00    0.0000000000E+00    0.0000000000E+00
    0.0000000000E+00    0.0000000000E+00    0.0000000000E+00    0.0000000000E+00
    0.0000000000E+00    0.0000000000E+00    0.0000000000E+00    0.0000000000E+00
    0.0000000000E+00    0.0000000000E+00    0.0000000000E+00    0.0000000000E+00
    0.0000000000E+00    0.0000000000E+00    0.0000000000E+00    0.0000000000E+00
    0.0000000000E+00    0.0000000000E+00    0.0000000000E+00    0.0000000000E+00
    0.0000000000E+00    0.0000000000E+00    0.0000000000E+00    0.0000000000E+00
    0.0000000000E+00    0.0000000000E+00    0.0000000000E+00    0.0000000000E+00
    0.0000000000E+00    0.0000000000E+00    0.0000000000E+00    0.0000000000E+00
    0.0000000000E+00    0.0000000000E+00    0.0000000000E+00    0.0000000000E+00
    0.0000000000E+00    0.0000000000E+00    0.0000000000E+00    0.0000000000E+00
    0.0000000000E+00    0.0000000000E+00    0.0000000000E+00    0.0000000000E+00
    0.0000000000E+00    0.0000000000E+00    0.0000000000E+00    0.0000000000E+00
    0.0000000000E+00    0.0000000000E+00    0.0000000000E+00    0.0000000000E+00
    0.0000000000E+00    0.0000000000E+00    0.0000000000E+00    0.0000000000E+00
    0.0000000000E+00    0.0000000000E+00    0.0000000000E+00    0.0000000000E+00
    0.0000000000E+00    0.0000000000E+00    0.0000000000E+00    0.0000000000E+00
    0.0000000000E+00    0.0000000000E+00    0.0000000000E+00    0.0000000000E+00
    0.0000000000E+00    0.0000000000E+00    0.0000000000E+00    0.0000000000E+00
    0.0000000000E+00    0.0000000000E+00    0.0000000000E+00    0.0000000000E+00
    0.0000000000E+00    0.0000000000E+00    0.0000000000E+00    0.0000000000E+00
    0.0000000000E+00    0.0000000000E+00    0.0000000000E+00    0.0000000000E+00
    0.0000000000E+00    0.0000000000E+00    0.0000000000E+00    0.0000000000E+00
    0.0000000000E+00    0.0000000000E+00    0.0000000000E+00    0.0000000000E+00
    0.0000000000E+00    0.0000000000E+00    0.0000000000E+00    0.0000000000E+00
    0.0000000000E+00    0.0000000000E+00    0.0000000000E+00    0.0000000000E+00
    0.0000000000E+00    0.0000000000E+00    0.0000000000E+00    0.0000000000E+00
    0.0000000000E+00    0.0000000000E+00    0.0000000000E+00    0.0000000000E+00
    0.0000000000E+00    0.0000000000E+00    0.0000000000E+00    0.0000000000E+00
    0.0000000000E+00    0.0000000000E+00    0.0000000000E+00    0.0000000000E+00
    0.0000000000E+00    0.0000000000E+00    0.0000000000E+00    0.0000000000E+00
    0.0000000000E+00    0.0000000000E+00    0.0000000000E+00    0.0000000000E+00
    0.0000000000E+00    0.0000000000E+00    0.0000000000E+00    0.0000000000E+00
    0.0000000000E+00    0.0000000000E+00    0.0000000000E+00    0.0000000000E+00
    0.0000000000E+00    0.0000000000E+00    0.0000000000E+00    0.0000000000E+00
    0.0000000000E+00    0.0000000000E+00    0.0000000000E+00    0.0000000000E+00
    0.0000000000E+00    0.0000000000E+00    0.0000000000E+00    0.0000000000E+00
    0.0000000000E+00    0.0000000000E+00    0.0000000000E+00    0.0000000000E+00
    0.0000000000E+00    0.0000000000E+00    0.0000000000E+00    0.0000000000E+00
    0.0000000000E+00    0.0000000000E+00    0.0000000000E+00    0.0000000000E+00
    0.0000000000E+00    0.0000000000E+00    0.0000000000E+00    0.0000000000E+00
    0.0000000000E+00    0.0000000000E+00    0.0000000000E+00    0.0000000000E+00
    0.0000000000E+00    0.0000000000E+00    0.0000000000E+00    0.0000000000E+00
    0.0000000000E+00    0.0000000000E+00    0.0000000000E+00    0.0000000000E+00
    0.0000000000E+00    0.0000000000E+00    0.0000000000E+00    0.0000000000E+00
    0.0000000000E+00    0.0000000000E+00    0.0000000000E+00    0.0000000000E+00
    0.0000000000E+00    0.0000000000E+00    0.0000000000E+00    0.0000000000E+00
    0.0000000000E+00    0.0000000000E+00    0.0000000000E+00    0.0000000000E+00
    0.0000000000E+00    0.0000000000E+00    0.0000000000E+00    0.0000000000E+00
    0.0000000000E+00    0.0000000000E+00    0.0000000000E+00    0.0000000000E+00
    0.0000000000E+00    0.0000000000E+00    0.0000000000E+00    0.0000000000E+00
    0.0000000000E+00    0.0000000000E+00    0.0000000000E+00    0.0000000000E+00
    0.0000000000E+00    0.0000000000E+00    0.0000000000E+00    0.0000000000E+00
    0.0000000000E+00    0.0000000000E+00    0.0000000000E+00    0.0000000000E+00
    0.0000000000E+00    0.0000000000E+00    0.0000000000E+00    0.0000000000E+00
    0.0000000000E+00    0.0000000000E+00    0.0000000000E+00    0.0000000000E+00
    0.0000000000E+00    0.0000000000E+00    0.0000000000E+00    0.0000000000E+00
    0.0000000000E+00    0.0000000000E+00    0.0000000000E+00    0.0000000000E+00
    0.0000000000E+00    0.0000000000E+00    0.0000000000E+00    0.0000000000E+00
    0.0000000000E+00    0.0000000000E+00    0.0000000000E+00    0.0000000000E+00
    0.0000000000E+00    0.0000000000E+00    0.0000000000E+00    0.0000000000E+00
    0.0000000000E+00    0.0000000000E+00    0.0000000000E+00    0.0000000000E+00
    0.0000000000E+00    0.0000000000E+00    0.0000000000E+00    0.0000000000E+00
    0.0000000000E+00    0.0000000000E+00    0.0000000000E+00    0.0000000000E+00
    0.0000000000E+00    0.0000000000E+00    0.0000000000E+00    0.0000000000E+00
    0.0000000000E+00    0.0000000000E+00    0.0000000000E+00    0.0000000000E+00
    0.0000000000E+00    0.0000000000E+00    0.0000000000E+00    0.0000000000E+00
    0.0000000000E+00    0.0000000000E+00    0.0000000000E+00    0.0000000000E+00
    0.0000000000E+00    0.0000000000E+00    0.0000000000E+00    0.0000000000E+00
    0.0000000000E+00    0.0000000000E+00    0.0000000000E+00    0.0000000000E+00
    0.0000000000E+00    0.0000000000E+00    0.0000000000E+00    0.0000000000E+00
    0.0000000000E+00    0.0000000000E+00    0.0000000000E+00    0.0000000000E+00
    0.0000000000E+00    0.0000000000E+00    0.0000000000E+00    0.0000000000E+00
    0.0000000000E+00    0.0000000000E+00    0.0000000000E+00    0.0000000000E+00
    0.0000000000E+00    0.0000000000E+00    0.0000000000E+00    0.0000000000E+00
    0.0000000000E+00    0.0000000000E+00    0.0000000000E+00    0.0000000000E+00
    0.0000000000E+00    0.0000000000E+00    0.0000000000E+00    0.0000000000E+00
    0.0000000000E+00    0.0000000000E+00    0.0000000000E+00    0.0000000000E+00
    0.0000000000E+00    0.0000000000E+00    0.0000000000E+00    0.0000000000E+00
    0.0000000000E+00    0.0000000000E+00    0.0000000000E+00    0.0000000000E+00
    0.0000000000E+00    0.0000000000E+00    0.0000000000E+00    0.0000000000E+00
    0.0000000000E+00    0.0000000000E+00    0.0000000000E+00    0.0000000000E+00
    0.0000000000E+00    0.0000000000E+00    0.0000000000E+00    0.0000000000E+00
    0.0000000000E+00    0.0000000000E+00    0.0000000000E+00    0.0000000000E+00
    0.0000000000E+00    0.0000000000E+00    0.0000000000E+00    0.0000000000E+00
    0.0000000000E+00    0.0000000000E+00    0.0000000000E+00    0.0000000000E+00
    0.0000000000E+00    0.0000000000E+00    0.0000000000E+00    0.0000000000E+00
    0.0000000000E+00    0.0000000000E+00    0.0000000000E+00    0.0000000000E+00
    0.0000000000E+00    0.0000000000E+00    0.0000000000E+00    0.0000000000E+00
    0.0000000000E+00    0.0000000000E+00    0.0000000000E+00    0.0000000000E+00
    0.0000000000E+00    0.0000000000E+00    0.0000000000E+00    0.0000000000E+00
    0.0000000000E+00    0.0000000000E+00    0.0000000000E+00    0.0000000000E+00
    0.0000000000E+00    0.0000000000E+00    0.0000000000E+00    0.0000000000E+00
    0.0000000000E+00    0.0000000000E+00    0.0000000000E+00    0.0000000000E+00
    0.0000000000E+00    0.0000000000E+00    0.0000000000E+00    0.0000000000E+00
    0.0000000000E+00    0.0000000000E+00    0.0000000000E+00    0.0000000000E+00
    0.0000000000E+00    0.0000000000E+00    0.0000000000E+00    0.0000000000E+00
    0.0000000000E+00    0.0000000000E+00    0.0000000000E+00    0.0000000000E+00
    0.0000000000E+00    0.0000000000E+00    0.0000000000E+00    0.0000000000E+00
    0.0000000000E+00    0.0000000000E+00    0.0000000000E+00    0.0000000000E+00
    0.0000000000E+00    0.0000000000E+00    0.0000000000E+00    0.0000000000E+00
    0.0000000000E+00    0.0000000000E+00    0.0000000000E+00    0.0000000000E+00
    0.0000000000E+00    0.0000000000E+00    0.0000000000E+00    0.0000000000E+00
    0.0000000000E+00    0.0000000000E+00    0.0000000000E+00    0.0000000000E+00
    0.0000000000E+00    0.0000000000E+00    0.0000000000E+00    0.0000000000E+00
    0.0000000000E+00    0.0000000000E+00    0.0000000000E+00    0.0000000000E+00
    0.0000000000E+00    0.0000000000E+00    0.0000000000E+00    0.0000000000E+00
    0.0000000000E+00    0.0000000000E+00    0.0000000000E+00    0.0000000000E+00
    0.0000000000E+00    0.0000000000E+00    0.0000000000E+00    0.0000000000E+00
    0.0000000000E+00    0.0000000000E+00    0.0000000000E+00    0.0000000000E+00
    0.0000000000E+00    0.0000000000E+00    0.0000000000E+00    0.0000000000E+00
    0.0000000000E+00    0.0000000000E+00    0.0000000000E+00    0.0000000000E+00
    0.0000000000E+00    0.0000000000E+00    0.0000000000E+00    0.0000000000E+00
    0.0000000000E+00    0.0000000000E+00    0.0000000000E+00    0.0000000000E+00
    0.0000000000E+00    0.0000000000E+00    0.0000000000E+00    0.0000000000E+00
    0.0000000000E+00    0.0000000000E+00    0.0000000000E+00    0.0000000000E+00
    0.0000000000E+00    0.0000000000E+00    0.0000000000E+00    0.0000000000E+00
    0.0000000000E+00    0.0000000000E+00    0.0000000000E+00    0.0000000000E+00
    0.0000000000E+00    0.0000000000E+00    0.0000000000E+00    0.0000000000E+00
    0.0000000000E+00    0.0000000000E+00    0.0000000000E+00    0.0000000000E+00
    0.0000000000E+00    0.0000000000E+00    0.0000000000E+00    0.0000000000E+00
    0.0000000000E+00    0.0000000000E+00    0.0000000000E+00    0.0000000000E+00
    0.0000000000E+00    0.0000000000E+00    0.0000000000E+00    0.0000000000E+00
    0.0000000000E+00    0.0000000000E+00    0.0000000000E+00    0.0000000000E+00
    0.0000000000E+00    0.0000000000E+00    0.0000000000E+00    0.0000000000E+00
    0.0000000000E+00    0.0000000000E+00    0.0000000000E+00    0.0000000000E+00
    0.0000000000E+00    0.0000000000E+00    0.0000000000E+00    0.0000000000E+00
    0.0000000000E+00    0.0000000000E+00    0.0000000000E+00    0.0000000000E+00
    0.0000000000E+00    0.0000000000E+00    0.0000000000E+00    0.0000000000E+00
    0.0000000000E+00    0.0000000000E+00    0.0000000000E+00    0.0000000000E+00
    0.0000000000E+00    0.0000000000E+00    0.0000000000E+00    0.0000000000E+00
    0.0000000000E+00    0.0000000000E+00    0.0000000000E+00    0.0000000000E+00
    0.0000000000E+00    0.0000000000E+00    0.0000000000E+00    0.0000000000E+00
    0.0000000000E+00    0.0000000000E+00    0.0000000000E+00    0.0000000000E+00
    0.0000000000E+00    0.0000000000E+00    0.0000000000E+00    0.0000000000E+00
    0.0000000000E+00    0.0000000000E+00    0.0000000000E+00    0.0000000000E+00
    0.0000000000E+00    0.0000000000E+00    0.0000000000E+00    0.0000000000E+00
    0.0000000000E+00    0.0000000000E+00    0.0000000000E+00    0.0000000000E+00
    0.0000000000E+00    0.0000000000E+00    0.0000000000E+00    0.0000000000E+00
    0.0000000000E+00    0.0000000000E+00    0.0000000000E+00    0.0000000000E+00
    0.0000000000E+00    0.0000000000E+00    0.0000000000E+00    0.0000000000E+00
    0.0000000000E+00    0.0000000000E+00    0.0000000000E+00    0.0000000000E+00
    0.0000000000E+00    0.0000000000E+00    0.0000000000E+00    0.0000000000E+00
    0.0000000000E+00    0.0000000000E+00    0.0000000000E+00    0.0000000000E+00
    0.0000000000E+00    0.0000000000E+00    0.0000000000E+00    0.0000000000E+00
    0.0000000000E+00    0.0000000000E+00    0.0000000000E+00    0.0000000000E+00
    0.0000000000E+00    0.0000000000E+00    0.0000000000E+00    0.0000000000E+00
    0.0000000000E+00    0.0000000000E+00    0.0000000000E+00    0.0000000000E+00
 </PP_TAUMOD>
 <PP_TAUATOM type="real"  size="1288" columns="4">
    3.9798588179E+01    3.9797841983E+01    3.9795551349E+01    3.9791560682E+01
    3.9785612699E+01    3.9777351425E+01    3.9766326362E+01    3.9751997759E+01
    3.9733742936E+01    3.9710863575E+01    3.9682593906E+01    3.9648109684E+01
    3.9606537871E+01    3.9556966885E+01    3.9498457321E+01    3.9430053018E+01
    3.9350792333E+01    3.9259719509E+01    3.9155895990E+01    3.9038411576E+01
    3.8906395269E+01    3.8759025704E+01    3.8595541036E+01    3.8415248184E+01
    3.8217531315E+01    3.8001859488E+01    3.7767793370E+01    3.7514990946E+01
    3.7243212183E+01    3.6952322579E+01    3.6642295587E+01    3.6313213876E+01
    3.5965269445E+01    3.5598762590E+01    3.5214099746E+01    3.4811790254E+01
    3.4392442091E+01    3.3956756633E+01    3.3505522533E+01    3.3039608776E+01
    3.2559957028E+01    3.2067573368E+01    3.1563519502E+01    3.1048903586E+01
    3.0524870756E+01    2.9992593484E+01    2.9453261882E+01    2.8908074048E+01
    2.8358226576E+01    2.7804905335E+01    2.7249276599E+01    2.6692478638E+01
    2.6135613838E+01    2.5579741429E+01    2.5025870881E+01    2.4474956030E+01
    2.3927889958E+01    2.3385500682E+01    2.2848547653E+01    2.2317719086E+01
    2.1793630114E+01    2.1276821755E+01    2.0767760684E+01    2.0266839759E+01
    1.9774379278E+01    1.9290628921E+01    1.8815770319E+01    1.8349920199E+01
    1.7893134038E+01    1.7445410165E+01    1.7006694244E+01    1.6576884065E+01
    1.6155834580E+01    1.5743363110E+01    1.5339254658E+01    1.4943267265E+01
    1.4555137335E+01    1.4174584889E+01    1.3801318661E+01    1.3435041025E+01
    1.3075452663E+01    1.2722256961E+01    1.2375164079E+01    1.2033894680E+01
    1.1698183273E+01    1.1367781171E+01    1.1042459028E+01    1.0722008963E+01
    1.0406246260E+01    1.0095010647E+01    9.7881671573E+00    9.4856065940E+00
    9.1872456018E+00    8.8930263744E+00    8.6029160169E+00    8.3169055894E+00
    8.0350088627E+00    7.7572608152E+00    7.4837159050E+00    7.2144461504E+00
    6.9495390543E+00    6.6890954062E+00    6.4332269985E+00    6.1820542888E+00
    5.9357040435E+00    5.6943069930E+00    5.4579955292E+00    5.2269014726E+00
    5.0011539351E+00    4.7808773007E+00    4.5661893450E+00    4.3571995105E+00
    4.1540073512E+00    3.9567011586E+00    3.7653567766E+00    3.5800366095E+00
    3.4007888270E+00    3.2276467630E+00    3.0606285060E+00    2.8997366761E+00
    2.7449583784E+00    2.5962653253E+00    2.4536141149E+00    2.3169466541E+00
    2.1861907117E+00    2.0612605886E+00    1.9420578890E+00    1.8284723784E+00
    1.7203829117E+00    1.6176584188E+00    1.5201589295E+00    1.4277366261E+00
    1.3402369081E+00    1.2574994580E+00    1.1793592950E+00    1.1056478069E+00
    1.0361936615E+00    9.7082275277E-01    9.0935958304E-01    8.5162903477E-01
    7.9745715823E-01    7.4667188609E-01    6.9910368939E-01    6.5458617222E-01
    6.1295660381E-01    5.7405638756E-01    5.3773146744E-01    5.0383267278E-01
    4.7221600317E-01    4.4274285588E-01    4.1528019859E-01    3.8970069043E-01
    3.6588275510E-01    3.4371060958E-01    3.2307425247E-01    3.0386941586E-01
    2.8599748472E-01    2.6936538783E-01    2.5388546413E-01    2.3947530811E-01
    2.2605759801E-01    2.1355991003E-01    2.0191452183E-01    1.9105820808E-01
    1.8093203091E-01    1.7148112747E-01    1.6265455354E-01    1.5440601305E-01
    1.4669338431E-01    1.3947746231E-01    1.3272175385E-01    1.2639231197E-01
    1.2045757581E-01    1.1488821674E-01    1.0965699114E-01    1.0473860027E-01
    1.0010955774E-01    9.5748064453E-02    9.1633891329E-02    8.7748269731E-02
    8.4073789468E-02    8.0594304252E-02    7.7294844406E-02    7.4161536531E-02
    7.1181529604E-02    6.8342928783E-02    6.5634866143E-02    6.3049162334E-02
    6.0579792952E-02    5.8221038720E-02    5.5967494641E-02    5.3814036285E-02
    5.1755805180E-02    4.9788194392E-02    4.7906834874E-02    4.6107582572E-02
    4.4386506265E-02    4.2739876061E-02    4.1164152554E-02    3.9655976566E-02
    3.8212159468E-02    3.6829674034E-02    3.5505645807E-02    3.4237344934E-02
    3.3022178464E-02    3.1857683066E-02    3.0741518152E-02    2.9671459379E-02
    2.8645392518E-02    2.7661307647E-02    2.6717293684E-02    2.5811533206E-02
    2.4942297560E-02    2.4107942250E-02    2.3306902565E-02    2.2537689457E-02
    2.1798885642E-02    2.1089141918E-02    2.0407173674E-02    1.9751757604E-02
    1.9121728586E-02    1.8515976742E-02    1.7933444644E-02    1.7373124684E-02
    1.6834056574E-02    1.6315324985E-02    1.5816057311E-02    1.5335421550E-02
    1.4872624301E-02    1.4426908857E-02    1.3997553410E-02    1.3583869366E-02
    1.3185199313E-02    1.2800916834E-02    1.2430423270E-02    1.2073147340E-02
    1.1728543678E-02    1.1396091569E-02    1.1075293751E-02    1.0765675303E-02
    1.0466782572E-02    1.0178182163E-02    9.8994599790E-03    9.6302203041E-03
    9.3700849367E-03    9.1186923633E-03    8.8756969734E-03    8.6407683138E-03
    8.4135903781E-03    8.1938609327E-03    7.9812908742E-03    7.7756036188E-03
    7.5765345217E-03    7.3838303244E-03    7.1972486281E-03    7.0165573941E-03
    6.8415344669E-03    6.6719671210E-03    6.5076516291E-03    6.3483928518E-03
    6.1940038460E-03    6.0443054927E-03    5.8991261425E-03    5.7583012774E-03
    5.6216731900E-03    5.4890906765E-03    5.3604087454E-03    5.2354883391E-03
    5.1141960696E-03    4.9964039658E-03    4.8819892335E-03    4.7708340259E-03
    4.6628252256E-03    4.5578542364E-03    4.4558167846E-03    4.3566127307E-03
    4.2601458882E-03    4.1663238525E-03    4.0750578363E-03    3.9862625137E-03
    3.8998558709E-03    3.8157590642E-03    3.7338962837E-03    3.6541946246E-03
    3.5765839632E-03    3.5009968389E-03    3.4273683421E-03    3.3556360065E-03
    3.2857397064E-03    3.2176215592E-03    3.1512258315E-03    3.0864988503E-03
    3.0233889171E-03    2.9618462269E-03    2.9018227903E-03    2.8432723589E-03
    2.7861503547E-03    2.7304138015E-03    2.6760212607E-03    2.6229327688E-03
    2.5711097780E-03    2.5205151000E-03    2.4711128511E-03    2.4228684005E-03
    2.3757483209E-03    2.3297203409E-03    2.2847532990E-03    2.2408171011E-03
    2.1978826780E-03    2.1559219459E-03    2.1149077681E-03    2.0748139188E-03
    2.0356150476E-03    1.9972866465E-03    1.9598050174E-03    1.9231472415E-03
    1.8872911497E-03    1.8522152946E-03    1.8178989233E-03    1.7843219515E-03
    1.7514649383E-03    1.7193090629E-03    1.6878361012E-03    1.6570284043E-03
    1.6268688770E-03    1.5973409580E-03    1.5684286003E-03    1.5401162528E-03
    1.5123888421E-03    1.4852317557E-03    1.4586308255E-03    1.4325723118E-03
    1.4070428884E-03    1.3820296279E-03    1.3575199875E-03    1.3335017960E-03
    1.3099632405E-03    1.2868928544E-03    1.2642795048E-03    1.2421123817E-03
    1.2203809867E-03    1.1990751215E-03    1.1781848833E-03    1.1577006304E-03
    1.1376130114E-03    1.1179129681E-03    1.0985916355E-03    1.0796404251E-03
    1.0610509808E-03    1.0428151767E-03    1.0249251089E-03    1.0073730880E-03
    9.9015163256E-04    9.7325346217E-04    9.5667149101E-04    9.4039882173E-04
    9.2442873935E-04    9.0875470558E-04    8.9337035320E-04    8.7826948073E-04
    8.6344604723E-04    8.4889416735E-04    8.3460810650E-04    8.2058227620E-04
    8.0681122965E-04    7.9328965739E-04    7.8001238311E-04    7.6697435968E-04
    7.5417066526E-04    7.4159649952E-04    7.2924718008E-04    7.1711813898E-04
    7.0520491932E-04    6.9350317201E-04    6.8200865264E-04    6.7071721841E-04
    6.5962482521E-04    6.4872752481E-04    6.3802146207E-04    6.2750287232E-04
    6.1716807881E-04    6.0701349019E-04    5.9703559815E-04    5.8723097511E-04
    5.7759627195E-04    5.6812821585E-04    5.5882360821E-04    5.4967932260E-04
    5.4069230281E-04    5.3185956093E-04    5.2317817554E-04    5.1464528988E-04
    5.0625811018E-04    4.9801390395E-04    4.8990999837E-04    4.8194377871E-04
    4.7411268685E-04    4.6641421975E-04    4.5884592808E-04    4.5140541479E-04
    4.4409033379E-04    4.3689838865E-04    4.2982733134E-04    4.2287496098E-04
    4.1603912272E-04    4.0931770650E-04    4.0270864601E-04    3.9620991757E-04
    3.8981953906E-04    3.8353556897E-04    3.7735610534E-04    3.7127928480E-04
    3.6530328169E-04    3.5942630712E-04    3.5364660808E-04    3.4796246659E-04
    3.4237219890E-04    3.3687415462E-04    3.3146671600E-04    3.2614829714E-04
    3.2091734322E-04    3.1577232984E-04    3.1071176227E-04    3.0573417478E-04
    3.0083813000E-04    2.9602221825E-04    2.9128505690E-04    2.8662528983E-04
    2.8204158673E-04    2.7753264262E-04    2.7309717724E-04    2.6873393450E-04
    2.6444168197E-04    2.6021921033E-04    2.5606533291E-04    2.5197888516E-04
    2.4795872418E-04    2.4400372827E-04    2.4011279644E-04    2.3628484801E-04
    2.3251882215E-04    2.2881367746E-04    2.2516839158E-04    2.2158196078E-04
    2.1805339954E-04    2.1458174024E-04    2.1116603270E-04    2.0780534390E-04
    2.0449875758E-04    2.0124537392E-04    1.9804430918E-04    1.9489469539E-04
    1.9179568002E-04    1.8874642571E-04    1.8574610988E-04    1.8279392453E-04
    1.7988907587E-04    1.7703078409E-04    1.7421828305E-04    1.7145082005E-04
    1.6872765551E-04    1.6604806276E-04    1.6341132778E-04    1.6081674892E-04
    1.5826363671E-04    1.5575131358E-04    1.5327911366E-04    1.5084638256E-04
    1.4845247712E-04    1.4609676521E-04    1.4377862554E-04    1.4149744743E-04
    1.3925263062E-04    1.3704358507E-04    1.3486973076E-04    1.3273049755E-04
    1.3062532491E-04    1.2855366183E-04    1.2651496658E-04    1.2450870659E-04
    1.2253435821E-04    1.2059140664E-04    1.1867934569E-04    1.1679767765E-04
    1.1494591316E-04    1.1312357100E-04    1.1133017801E-04    1.0956526890E-04
    1.0782838612E-04    1.0611907971E-04    1.0443690721E-04    1.0278143346E-04
    1.0115223051E-04    9.9548877485E-05    9.7970960462E-05    9.6418072337E-05
    9.4889812714E-05    9.3385787782E-05    9.1905610201E-05    9.0448898988E-05
    8.9015279408E-05    8.7604382860E-05    8.6215846778E-05    8.4849314516E-05
    8.3504435256E-05    8.2180863899E-05    8.0878260970E-05    7.9596292521E-05
    7.8334630035E-05    7.7092950333E-05    7.5870935484E-05    7.4668272711E-05
    7.3484654311E-05    7.2319777558E-05    7.1173344630E-05    7.0045062514E-05
    6.8934642936E-05    6.7841802271E-05    6.6766261470E-05    6.5707745983E-05
    6.4665985681E-05    6.3640714782E-05    6.2631671780E-05    6.1638599372E-05
    6.0661244386E-05    5.9699357717E-05    5.8752694255E-05    5.7821012819E-05
    5.6904076092E-05    5.6001650558E-05    5.5113506439E-05    5.4239417632E-05
    5.3379161647E-05    5.2532519551E-05    5.1699275906E-05    5.0879218713E-05
    5.0072139356E-05    4.9277832545E-05    4.8496096262E-05    4.7726731708E-05
    4.6969543249E-05    4.6224338366E-05    4.5490927602E-05    4.4769124515E-05
    4.4058745625E-05    4.3359610369E-05    4.2671541052E-05    4.1994362801E-05
    4.1327903519E-05    4.0671993841E-05    4.0026467086E-05    3.9391159220E-05
    3.8765908807E-05    3.8150556969E-05    3.7544947348E-05    3.6948926060E-05
    3.6362341659E-05    3.5785045096E-05    3.5216889681E-05    3.4657731046E-05
    3.4107427105E-05    3.3565838020E-05    3.3032826164E-05    3.2508256085E-05
    3.1991994472E-05    3.1483910121E-05    3.0983873901E-05    3.0491758718E-05
    3.0007439488E-05    2.9530793101E-05    2.9061698390E-05    2.8600036101E-05
    2.8145688862E-05    2.7698541152E-05    2.7258479275E-05    2.6825391325E-05
    2.6399167164E-05    2.5979698390E-05    2.5566878309E-05    2.5160601911E-05
    2.4760765842E-05    2.4367268375E-05    2.3980009387E-05    2.3598890335E-05
    2.3223814226E-05    2.2854685598E-05    2.2491410491E-05    2.2133896428E-05
    2.1782052386E-05    2.1435788777E-05    2.1095017426E-05    2.0759651545E-05
    2.0429605713E-05    2.0104795855E-05    1.9785139221E-05    1.9470554362E-05
    1.9160961114E-05    1.8856280575E-05    1.8556435083E-05    1.8261348204E-05
    1.7970944702E-05    1.7685150531E-05    1.7403892807E-05    1.7127099795E-05
    1.6854700892E-05    1.6586626602E-05    1.6322808528E-05    1.6063179348E-05
    1.5807672800E-05    1.5556223666E-05    1.5308767755E-05    1.5065241887E-05
    1.4825583877E-05    1.4589732518E-05    1.4357627571E-05    1.4129209741E-05
    1.3904420670E-05    1.3683202918E-05    1.3465499950E-05    1.3251256123E-05
    1.3040416669E-05    1.2832927682E-05    1.2628736109E-05    1.2427789728E-05
    1.2230037144E-05    1.2035427770E-05    1.1843911816E-05    1.1655440278E-05
    1.1469964923E-05    1.1287438280E-05    1.1107813624E-05    1.0931044968E-05
    1.0757087050E-05    1.0585895321E-05    1.0417425935E-05    1.0251635738E-05
    1.0088482255E-05    9.9279236820E-06    9.7699188743E-06    9.6144273359E-06
    9.4614092098E-06    9.3108252679E-06    9.1626369010E-06    9.0168061090E-06
    8.8732954916E-06    8.7320682389E-06    8.5930881219E-06    8.4563194834E-06
    8.3217272293E-06    8.1892768194E-06    8.0589342591E-06    7.9306660905E-06
    7.8044393840E-06    7.6802217304E-06    7.5579812322E-06    7.4376864959E-06
    7.3193066240E-06    7.2028112072E-06    7.0881703167E-06    6.9753544969E-06
    6.8643347575E-06    6.7550825667E-06    6.6475698436E-06    6.5417689513E-06
    6.4376526901E-06    6.3351942902E-06    6.2343674054E-06    6.1351461060E-06
    6.0375048726E-06    5.9414185898E-06    5.8468625391E-06    5.7538123935E-06
    5.6622442109E-06    5.5721344283E-06    5.4834598554E-06    5.3961976693E-06
    5.3103254083E-06    5.2258209664E-06    5.1426625877E-06    5.0608288610E-06
    4.9802987141E-06    4.9010514085E-06    4.8230665346E-06    4.7463240059E-06
    4.6708040544E-06    4.5964872253E-06    4.5233543721E-06    4.4513866520E-06
    4.3805655207E-06    4.3108727280E-06    4.2422903133E-06    4.1748006006E-06
    4.1083861942E-06    4.0430299746E-06    3.9787150937E-06    3.9154249706E-06
    3.8531432877E-06    3.7918539863E-06    3.7315412625E-06    3.6721895632E-06
    3.6137835822E-06    3.5563082565E-06    3.4997487620E-06    3.4440905101E-06
    3.3893191437E-06    3.3354205341E-06    3.2823807766E-06    3.2301861876E-06
    3.1788233008E-06    3.1282788639E-06    3.0785398351E-06    3.0295933801E-06
    2.9814268681E-06    2.9340278695E-06    2.8873841521E-06    2.8414836782E-06
    2.7963146013E-06    2.7518652636E-06    2.7081241923E-06    2.6650800973E-06
    2.6227218681E-06    2.5810385707E-06    2.5400194452E-06    2.4996539029E-06
    2.4599315233E-06    2.4208420521E-06    2.3823753978E-06    2.3445216299E-06
    2.3072709755E-06    2.2706138175E-06    2.2345406919E-06    2.1990422854E-06
    2.1641094327E-06    2.1297331148E-06    2.0959044560E-06    2.0626147222E-06
    2.0298553181E-06    1.9976177855E-06    1.9658938009E-06    1.9346751734E-06
    1.9039538425E-06    1.8737218761E-06    1.8439714686E-06    1.8146949388E-06
    1.7858847277E-06    1.7575333968E-06    1.7296336263E-06    1.7021782130E-06
    1.6751600684E-06    1.6485722171E-06    1.6224077948E-06    1.5966600468E-06
    1.5713223260E-06    1.5463880911E-06    1.5218509055E-06    1.4977044348E-06
    1.4739424458E-06    1.4505588049E-06    1.4275474759E-06    1.4049025193E-06
    1.3826180901E-06    1.3606884364E-06    1.3391078985E-06    1.3178709065E-06
    1.2969719796E-06    1.2764057245E-06    1.2561668338E-06    1.2362500849E-06
    1.2166503383E-06    1.1973625369E-06    1.1783817039E-06    1.1597029423E-06
    1.1413214328E-06    1.1232324335E-06    1.1054312777E-06    1.0879133737E-06
    1.0706742027E-06    1.0537093181E-06    1.0370143444E-06    1.0205849758E-06
    1.0044169754E-06    9.8850617385E-07    9.7284846827E-07    9.5743982142E-07
    9.4227626047E-07    9.2735387602E-07    9.1266882108E-07    8.9821731009E-07
    8.8399561795E-07    8.7000007902E-07    8.5622708621E-07    8.4267309000E-07
    8.2933459759E-07    8.1620817193E-07    8.0329043087E-07    7.9057804627E-07
    7.7806774313E-07    7.6575629877E-07    7.5364054196E-07    7.4171735213E-07
    7.2998365855E-07    7.1843643951E-07    7.0707272161E-07    6.9588957888E-07
    6.8488413212E-07    6.7405354812E-07    6.6339503890E-07    6.5290586103E-07
    6.4258331489E-07    6.3242474397E-07    6.2242753422E-07    6.1258911331E-07
    6.0290695002E-07    5.9337855356E-07    5.8400147292E-07    5.7477329622E-07
    5.6569165015E-07    5.5675419927E-07    5.4795864546E-07    5.3930272731E-07
    5.3078421952E-07    5.2240093234E-07    5.1415071101E-07    5.0603143516E-07
    4.9804101832E-07    4.9017740732E-07    4.8243858179E-07    4.7482255365E-07
    4.6732736654E-07    4.5995109539E-07    4.5269184584E-07    4.4554775380E-07
    4.3851698495E-07    4.3159773429E-07    4.2478822560E-07    4.1808671108E-07
    4.1149147081E-07    4.0500081235E-07    3.9861307029E-07    3.9232660582E-07
    3.8613980629E-07    3.8005108481E-07    3.7405887984E-07    3.6816165476E-07
    3.6235789751E-07    3.5664612015E-07    3.5102485851E-07    3.4549267181E-07
    3.4004814226E-07    3.3468987473E-07    3.2941649633E-07    3.2422665613E-07
    3.1911902474E-07    3.1409229401E-07    3.0914517667E-07    3.0427640600E-07
    2.9948473550E-07    2.9476893858E-07    2.9012780821E-07    2.8556015666E-07
    2.8106481513E-07    2.7664063349E-07    2.7228647996E-07    2.6800124083E-07
    2.6378382017E-07    2.5963313954E-07    2.5554813771E-07    2.5152777037E-07
    2.4757100990E-07    2.4367684507E-07    2.3984428078E-07    2.3607233782E-07
    2.3236005260E-07    2.2870647690E-07    2.2511067764E-07    2.2157173661E-07
    2.1808875026E-07    2.1466082946E-07    2.1128709926E-07    2.0796669866E-07
    2.0469878040E-07    2.0148251073E-07    1.9831706921E-07    1.9520164847E-07
    1.9213545404E-07    1.8911770408E-07    1.8614762927E-07    1.8322447251E-07
    1.8034748881E-07    1.7751594503E-07    1.7472911975E-07    1.7198630302E-07
    1.6928679623E-07    1.6662991190E-07    1.6401497351E-07    1.6144131533E-07
    1.5890828224E-07    1.5641522955E-07    1.5396152286E-07    1.5154653788E-07
    1.4916966026E-07    1.4683028544E-07    1.4452781852E-07    1.4226167403E-07
    1.4003127589E-07    1.3783605714E-07    1.3567545989E-07    1.3354893513E-07
    1.3145594259E-07    1.2939595060E-07    1.2736843599E-07    1.2537288388E-07
    1.2340878762E-07    1.2147564862E-07    1.1957297623E-07    1.1770028761E-07
    1.1585710762E-07    1.1404296866E-07    1.1225741062E-07    1.1049998066E-07
    1.0877023320E-07    1.0706772971E-07    1.0539203867E-07    1.0374273541E-07
    1.0211940203E-07    1.0052162729E-07    9.8949006464E-08    9.7401141294E-08
    9.5877639849E-08    9.4378116433E-08    9.2902191488E-08    9.1449491494E-08
    9.0019648874E-08    8.8612301896E-08    8.7227094582E-08    8.5863676619E-08
    8.4521703260E-08    8.3200835244E-08    8.1900738703E-08    8.0621085081E-08
    7.9361551040E-08    7.8121818389E-08    7.6901573991E-08    7.5700509688E-08
    7.4518322220E-08    7.3354713148E-08    7.2209388776E-08    7.1082060074E-08
    6.9972442606E-08    6.8880256456E-08    6.7805226154E-08    6.6747080609E-08
    6.5705553033E-08    6.4680380879E-08    6.3671305769E-08    6.2678073431E-08
    6.1700433627E-08    6.0738140097E-08    5.9790950490E-08    5.8858626302E-08
    5.7940932817E-08    5.7037639047E-08    5.6148517667E-08    5.5273344963E-08
    5.4411900772E-08    5.3563968424E-08    5.2729334689E-08    5.1907789720E-08
    5.1099126999E-08    5.0303143286E-08    4.9519638565E-08    4.8748415993E-08
    4.7989281849E-08    4.7242045486E-08    4.6506519280E-08    4.5782518581E-08
    4.5069861670E-08    4.4368369707E-08    4.3677866690E-08    4.2998179405E-08
    4.2329137385E-08    4.1670572865E-08    4.1022320740E-08    4.0384218520E-08
    3.9756106292E-08    3.9137826675E-08    3.8529224783E-08    3.7930148184E-08
    3.7340446862E-08    3.6759973174E-08    3.6188581820E-08    3.5626129797E-08
    3.5072476371E-08    3.4527483034E-08    3.3991013471E-08    3.3462933528E-08
    3.2943111171E-08    3.2431416460E-08    3.1927721510E-08    3.1431900460E-08
    3.0943829442E-08    3.0463386547E-08    2.9990451795E-08    2.9524907107E-08
    2.9066636269E-08    2.8615524907E-08    2.8171460457E-08    2.7734332133E-08
    2.7304030903E-08    2.6880449460E-08    2.6463482192E-08    2.6053025157E-08
    2.5648976059E-08    2.5251234215E-08    2.4859700538E-08    2.4474277503E-08
    2.4094869129E-08    2.3721380952E-08    2.3353719999E-08    2.2991794767E-08
    2.2635515199E-08    2.2284792660E-08    2.1939539915E-08    2.1599671108E-08
    2.1265101737E-08    2.0935748637E-08    2.0611529953E-08    2.0292365127E-08
    1.9978174868E-08    1.9668881139E-08    1.9364407136E-08    1.9064677264E-08
    1.8769617124E-08    1.8479153490E-08    1.8193214291E-08    1.7911728593E-08
    1.7634626582E-08    1.7361839545E-08    1.7093299852E-08    1.6828940942E-08
    1.6568697299E-08    1.6312504446E-08    1.6060298918E-08    1.5812018253E-08
    1.5567600972E-08    1.5326986567E-08    1.5090115482E-08    1.4856929101E-08
    1.4627369730E-08    1.4401380586E-08    1.4178905779E-08    1.3959890301E-08
    1.3744280009E-08    1.3532021614E-08    1.3323062665E-08    1.3117351538E-08
    1.2914837422E-08    1.2715470306E-08    1.2519200965E-08    1.2325980950E-08
    1.2135762575E-08    1.1948498903E-08    1.1764143738E-08    1.1582651609E-08
    1.1403977761E-08    1.1228078143E-08    1.1054909397E-08    1.0884428848E-08
    1.0716594490E-08    1.0551364979E-08    1.0388699622E-08    1.0228558364E-08
    1.0070901781E-08    9.9156910690E-09    9.7628880322E-09    9.6124550766E-09
    9.4643551988E-09    9.3185519766E-09    9.1750095603E-09    9.0336926633E-09
    8.8945665535E-09    8.7575970441E-09    8.6227504855E-09    8.4899937564E-09
    8.3592942557E-09    8.2306198942E-09    8.1039390865E-09    7.9792207428E-09
    7.8564342617E-09    7.7355495219E-09    7.6165368748E-09    7.4993671370E-09
    7.3840115833E-09    7.2704419388E-09    7.1586303723E-09    7.0485494893E-09
    6.9401723248E-09    6.8334723367E-09    6.7284233991E-09    6.6249997958E-09
    6.5231762138E-09    6.4229277369E-09    6.3242298393E-09    6.2270583798E-09
    6.1313895955E-09    6.0372000957E-09    5.9444668564E-09    5.8531672142E-09
    5.7632788607E-09    5.6747798370E-09    5.5876485282E-09    5.5018636577E-09
    5.4174042821E-09    5.3342497861E-09    5.2523798770E-09    5.1717745797E-09
    5.0924142319E-09    5.0142794789E-09    4.9373512691E-09    4.8616108488E-09
    4.7870397577E-09    4.7136198245E-09    4.6413331619E-09    4.5701621627E-09
    4.5000894947E-09    4.4310980969E-09    4.3631711753E-09    4.2962921980E-09
    4.2304448919E-09    4.1656132382E-09    4.1017814685E-09    4.0389340606E-09
    3.9770557351E-09    3.9161314512E-09    3.8561464033E-09    3.7970860169E-09
    3.7389359451E-09    3.6816820653E-09    3.6253104752E-09    3.5698074899E-09
    3.5151596377E-09    3.4613536577E-09    3.4083764958E-09    3.3562153016E-09
    3.3048574253E-09    3.2542904146E-09    3.2045020114E-09    3.1554801489E-09
    3.1072129486E-09    3.0596887170E-09    3.0128959435E-09    2.9668232965E-09
    2.9214596214E-09    2.8767939375E-09    2.8328154353E-09    2.7895134737E-09
    2.7468775775E-09    2.7048974349E-09    2.6635628946E-09    2.6228639637E-09
    2.5827908048E-09    2.5433337339E-09    2.5044832178E-09    2.4662298718E-09
    2.4285644573E-09    2.3914778797E-09    2.3549611860E-09    2.3190055623E-09
    2.2836023324E-09    2.2487429548E-09    2.2144190211E-09    2.1806222536E-09
    2.1473445036E-09    2.1145777492E-09    2.0823140931E-09    2.0505457611E-09
    2.0192650997E-09    1.9884645746E-09    1.9581367686E-09    1.9282743798E-09
    1.8988702199E-09    1.8699172125E-09    1.8414083908E-09    1.8133368967E-09
    1.7856959785E-09    1.7584789894E-09    1.7316793859E-09    1.7052907262E-09
    1.6793066686E-09    1.6537209698E-09    1.6285274837E-09    1.6037201594E-09
    1.5792930400E-09    1.5552402612E-09    1.5315560498E-09    1.5082347220E-09
    1.4852706824E-09    1.4626584224E-09    1.4403925188E-09    1.4184676328E-09
    1.3968785081E-09    1.3756199702E-09    1.3546869248E-09    1.3340743565E-09
    1.3137773279E-09    1.2937909781E-09    1.2741105214E-09    1.2547312465E-09
    1.2356485151E-09    1.2168577606E-09    1.1983544876E-09    1.1801342699E-09
    1.1621927502E-09    1.1445256386E-09    1.1271287117E-09    1.1099978115E-09
    1.0931288444E-09    1.0765177803E-09    1.0601606513E-09    1.0440535511E-09
    1.0281926340E-09    1.0125741135E-09    9.9719426202E-10    9.8204940955E-10
    9.6713594289E-10    9.5245030476E-10    9.3798899292E-10    9.2374855932E-10
    9.0972560927E-10    8.9591680056E-10    8.8231884269E-10    8.6892849606E-10
    8.5574257116E-10    8.4275792777E-10    8.2997147427E-10    8.1738016678E-10
    8.0498100852E-10    7.9277104900E-10    7.8074738333E-10    7.6890715151E-10
    7.5724753774E-10    7.4576576970E-10    7.3445911792E-10    7.2332489508E-10
    7.1236045536E-10    7.0156319381E-10    6.9093054569E-10    6.8045998588E-10
    6.7014902822E-10    6.5999522495E-10    6.4999616607E-10    6.4014947878E-10
    6.3045282692E-10    6.2090391034E-10    6.1150046441E-10    6.0224025942E-10
    5.9312110005E-10    5.8414082486E-10    5.7529730573E-10    5.6658844735E-10
    5.5801218673E-10    5.4956649270E-10    5.4124936536E-10    5.3305883568E-10
    5.2499296496E-10    5.1704984438E-10    5.0922759452E-10    5.0152436495E-10
    4.9393833371E-10    4.8646770694E-10    4.7911071839E-10    4.7186562902E-10
    4.6473072658E-10    4.5770432517E-10    4.5078476486E-10    4.4397041128E-10
    4.3725965519E-10    4.3065091216E-10    4.2414262211E-10    4.1773324899E-10
    4.1142128039E-10    4.0520522714E-10    3.9908362301E-10    3.9305502432E-10
    3.8711800958E-10    3.8127117917E-10    3.7551315501E-10    3.6984258018E-10
 </PP_TAUATOM>
</UPF>