4
pbc=[T, T, T] Lattice="3.23167643 0.00000000 0.00000000 -1.61583822 2.79871389 -0.00000000 0.00000000 -0.00000000 5.20836075" Properties=species:S:1:pos:R:3:velocities:R:3:Z:I:1
Zn        -0.00000000       1.86580926      -0.08577365         0.00000000       0.00000000       0.00000000         30
Zn         1.61583822       0.93290463       2.51840672         0.00000000       0.00000000       0.00000000         30
O        -0.00000000       1.86580926       1.89022362         0.00000000       0.00000000       0.00000000          8
O         1.61583822       0.93290463       4.49440399         0.00000000       0.00000000       0.00000000          8
