5
pbc=[T, T, T] Lattice="2.79019452 1.61091956 2.28210895 -2.79019452 1.61091956 2.28210895 -0.00000000 -3.22183912 2.28210895" Properties=species:S:1:pos:R:3:velocities:R:3:Z:I:1
Ba         0.00000000      -0.00000000       0.00446337         0.00000000       0.00000000       0.00000000         56
Ti        -0.00000000       3.22183912       1.20572424         0.00000000       0.00000000       0.00000000         22
O        -0.00000000       1.62531559       2.21524874         0.00000000       0.00000000       0.00000000          8
O         1.38262993       4.02010088       2.21524874         0.00000000       0.00000000       0.00000000          8
O        -1.38262993       4.02010088       2.21524874         0.00000000       0.00000000       0.00000000          8
